5000

C	182.446	-178.818	320.579
C	188.739	-199.627	342.296
C	193.539	-229.765	350.558
C	195.612	-262.105	346.165
C	194.053	-292.259	350.904
C	190.095	-313.376	377.879
C	189.866	-317.46	412.935
C	198.501	-324.383	442.219
C	213.237	-346.114	461.714
C	223.196	-376.193	470.971
C	220.722	-405.201	483.569
C	205.995	-424.355	506.804
C	188.125	-428.402	535.477
C	177.358	-426.325	565.56
C	177.726	-428.305	597.112
C	188.263	-438.733	625.999
C	201.085	-456.637	649.239
C	207.199	-477.493	671.345
C	202.752	-493.519	698.107
C	191.519	-494.549	729.368
C	183.812	-478.987	758.589
C	185.286	-460.44	784.734
C	191.061	-453.638	814.618
C	193.143	-463.675	846.031
C	188.398	-479.12	873.741
C	181.585	-483.249	903.513
C	178.945	-469.259	933.585
C	182.322	-445.39	956.636
C	187.375	-423.445	977.904
C	190.42	-406.368	1003.02
C	191.306	-392.959	1030.66
C	191.437	-380.109	1058.35
C	193.159	-366.097	1085.34
C	203.006	-351.297	1110.7
C	221.525	-335.297	1130.89
C	240.199	-314.217	1144.73
C	248.151	-285.176	1155.46
C	242.186	-254.761	1166.1
C	234.731	-228.501	1180.89
C	241.336	-204.667	1200.33
C	264.906	-185.2	1214.54
C	291.678	-166.132	1215.42
C	306.668	-138.33	1206.95
C	302.87	-105.208	1199.39
C	291.014	-74.6817	1203.41
C	289.357	-47.3044	1221.04
C	305.834	-27.2469	1243.58
C	332.424	-12.6948	1257.4
C	356.667	8.47	1257.9
C	367.893	38.4751	1246.2
C	364.357	68.7962	1231.72
C	359.868	98.9536	1225.44
C	366.639	129.789	1232.04
C	386.85	152.667	1247.01
C	412.69	169.159	1256.63
C	435.487	190.858	1251.61
C	444.363	218.245	1232.88
C	439.547	245.545	1214.32
C	436.994	275.648	1206.73
C	447.389	306.48	1212.62
C	467.489	329.997	1224.66
C	486.686	353.566	1228.79
C	496.838	382.261	1216.18
C	496.284	405.483	1190.77
C	499.897	424.081	1166.12
C	518.606	446.546	1152.55
C	543.162	470.284	1157.63
C	558.095	496.598	1168.56
C	561.309	528.659	1167.34
C	559.511	556.724	1148.44
C	565.365	575.194	1121.83
C	582.954	590.535	1099.95
C	603.694	611.018	1087.93
C	615.224	640.704	1083.32
C	612.742	673.56	1081.7
C	607.617	703.864	1077.29
C	615.717	731.733	1065.3
C	639.243	748.18	1046.07
C	662.562	753.413	1023.24
C	673.863	765.547	996.773
C	671.55	792.581	976.446
C	668.757	826.392	973.003
C	680.704	856.619	976.051
C	702.263	879.046	967.11
C	713.849	895.037	939.406
C	707.121	908.619	908.733
C	702.307	931.469	888.175
C	717.294	961.43	880.477
C	743.342	983.221	880.26
C	760.86	1004.72	867.008
C	757.957	1025.91	839.013
C	743.239	1038.88	811.167
C	739.727	1053.18	784.451
C	753.876	1072.67	761.919
C	774.751	1095.2	749.885
C	787.59	1122.11	740.808
C	786.188	1150.29	725.39
C	772.655	1168.95	700.601
C	757.464	1173.41	670.911
C	749.495	1174.07	640.417
C	753.378	1183.86	610.44
C	769.928	1204.05	588.659
C	787.413	1225.48	572.968
C	794.036	1242.68	548.077
C	781.639	1249.69	516.231
C	759.232	1248.85	490.754
C	744.074	1254.01	464.909
C	744.764	1267.91	435.351
C	755.328	1281.9	408.16
C	756.659	1289.36	378.49
C	739.681	1287.03	349.356
C	714.777	1277.43	328.909
C	696.287	1267.88	306.463
C	689.495	1261.21	276.22
C	690.668	1255.45	245.091
C	687.165	1243.49	217.08
C	672.138	1223.18	196.616
C	649.413	1202.18	185.722
C	625.462	1186.36	174.169
C	604.645	1174.85	154.381
C	590.635	1162.35	129.434
C	582.122	1141.07	107.971
C	574.845	1110.25	99.2835
C	564.126	1079.17	105.943
C	546.865	1054.9	118.786
C	524.262	1034.99	127.004
C	501.778	1013.55	125.694
C	486.3	987.268	117.484
C	480.657	956.516	111.849
C	482.022	924.885	119.447
C	485.135	900.574	142.844
C	483.847	885.153	171.627
C	474.274	866.689	194.61
C	457.901	840.243	204.586
C	442.616	812.291	206.368
C	434.235	785.897	219.942
C	437.493	770.283	251.099
C	447.146	767.495	283.588
C	449.47	756.34	311.778
C	439.697	731.706	331.911
C	426.12	706.3	345.707
C	421.213	687.719	369.916
C	431.249	681.055	401.973
C	448.643	679.131	429.445
C	461.325	667.73	454.886
C	461.523	648.399	480.507
C	448.749	634.878	507.307
C	430.884	636.445	535.191
C	416.492	644.879	562.134
C	408.197	641.78	591.725
C	409.752	619.369	617.901
C	420.484	591.094	633.657
C	433.352	574.004	656.113
C	440.341	577.999	690.038
C	434.797	594.35	720.268
C	421.987	595.809	749.262
C	410.063	573.886	773.775
C	405.369	546.923	791.79
C	404.092	535.181	820.932
C	404.179	546.501	854.538
C	401.664	562.097	882.443
C	392.06	560.138	912.466
C	378.582	539.982	936.806
C	368.958	520.213	958.828
C	367.145	514.442	990.153
C	372.006	525.137	1022.09
C	370.788	538.658	1050.37
C	352.553	542.555	1077.21
C	323.761	533.997	1094.46
C	300.493	522.532	1111.63
C	291.051	516.315	1141.98
C	294.06	519.667	1175.3
C	288.531	528.282	1204.56
C	263.26	534.225	1225.8
C	232.252	534.761	1237.32
C	209.772	537.04	1257.75
C	201.28	544.61	1288.8
C	194.351	551.484	1318.1
C	168.764	551.459	1338.27
C	133.086	546.028	1338.24
C	101.539	545.774	1333.91
C	73.4768	554.105	1346.41
C	58.2472	562.843	1376.75
C	53.298	561.555	1409.96
C	41.5084	551.704	1437.38
C	14.5095	542.635	1453.95
C	-20.2982	544.687	1455.32
C	-50.6346	557.744	1450.03
C	-77.8913	572.219	1451.58
C	-106.068	578.103	1464.61
C	-132.193	568.936	1482.91
C	-155.214	549.47	1495.45
C	-179.995	530.776	1499.57
C	-209.755	521.462	1501.13
C	-241.349	525.408	1506.73
C	-269.16	538.873	1516.62
C	-295.527	553.094	1524.13
C	-325.738	560.771	1521.97
C	-355.95	556.33	1509
C	-381.354	541.144	1494.98
C	-406.321	522.349	1490.72
C	-433.568	507.556	1498.47
C	-462.64	501.38	1509.01
C	-494.236	501.737	1508.08
C	-522.072	503.971	1489.32
C	-541.973	502.211	1463.45
C	-565.678	492.928	1445.98
C	-596.149	478.833	1446.87
C	-624.363	467.09	1459.36
C	-652.784	456.23	1460.54
C	-676.008	443.073	1438.87
C	-683.334	429.791	1407.12
C	-692.006	414.826	1381.73
C	-717.374	402.288	1366.17
C	-751.616	402.032	1362.13
C	-782.162	407.063	1356.78
C	-807.614	399.132	1339.83
C	-818.639	371.634	1319.71
C	-818.439	339.558	1308.12
C	-828.448	313.576	1295.76
C	-853.416	302.305	1275.85
C	-879.674	307.679	1254.22
C	-900.664	310.701	1231.79
C	-917.387	301.492	1206.97
C	-927.802	283.842	1182.38
C	-933.258	264.7	1158.27
C	-936.846	243.921	1135.8
C	-941.827	218.324	1118.99
C	-951.899	190.836	1108.06
C	-970.109	169.543	1094.2
C	-993.376	162.688	1071.47
C	-1012.78	166.083	1045.34
C	-1026.65	160.81	1018.42
C	-1031.18	140.207	992.981
C	-1023.55	117.508	970.377
C	-1013.1	106.973	942.398
C	-1013.57	108.608	909.789
C	-1031	107.69	881.611
C	-1053.96	91.7411	863.026
C	-1064.59	65.0079	847.188
C	-1056.26	41.98	824.007
C	-1038.02	34.1844	795.922
C	-1027.29	33.8715	765.989
C	-1033.36	28.6522	734.621
C	-1053.94	18.4478	709.798
C	-1074.49	10.587	687.758
C	-1081.5	9.91457	656.816
C	-1065.93	15.2554	625.252
C	-1039.71	16.1588	603.559
C	-1021.78	4.83811	580.264
C	-1023.4	-14.0172	551.981
C	-1039.89	-25.5646	524.665
C	-1051.23	-24.3172	494.924
C	-1045.41	-16.9068	463.312
C	-1026.68	-14.8219	436.222
C	-1009.21	-20.8982	411.008
C	-998.509	-24.1981	382.619
C	-989.773	-13.7745	353.993
C	-977.136	4.30382	331.073
C	-961.034	12.774	306.475
C	-951.495	5.91757	275.976
C	-952.916	-0.338011	244.767
C	-952.784	12.8283	215.257
C	-939.272	39.7208	197.4
C	-912.519	57.9394	187.815
C	-882.635	60.4366	174.34
C	-858.712	59.9754	154.135
C	-842.37	73.3275	130.381
C	-836.433	100.316	110.897
C	-835.108	127.5	94.685
C	-826.87	148.076	73.5527
C	-806.154	159.997	51.67
C	-776.161	167.865	40.3341
C	-746.171	180.764	42.1475
C	-723.751	203.079	47.2845
C	-709.854	231.747	43.2133
C	-700.612	258.42	27.4894
C	-688.072	280.499	9.82667
C	-667.881	302.738	1.75064
C	-645.607	325.686	8.22677
C	-627.498	348.097	21.9132
C	-610.173	370.619	33.1221
C	-588.583	390.95	40.6564
C	-563.905	406.788	50.0512
C	-543.045	422.425	66.6156
C	-533.742	444.965	87.4364
C	-536.134	474.587	101.828
C	-537.151	506.17	105.796
C	-523.868	534.963	107.536
C	-497.535	553.267	117.311
C	-473.064	559.418	140.086
C	-463.012	562.166	172.184
C	-467.756	570.057	204.269
C	-476.888	587.257	230.018
C	-479.175	613.184	248.776
C	-469.921	641.282	262.014
C	-453.141	663.557	276.939
C	-437.908	675.158	302.771
C	-434.89	673.093	337.05
C	-445.106	666.279	368.316
C	-456.559	669.7	397.04
C	-458.993	685.533	424.816
C	-452.573	701.553	451.233
C	-448.252	707.097	481.332
C	-452.895	704.882	512.615
C	-460.739	706.957	542.21
C	-462.03	716.98	571.43
C	-457.718	724.859	600.855
C	-460.973	720.264	631.858
C	-480.804	704.826	655.569
C	-507.986	691.276	669.034
C	-528.999	684.854	690.346
C	-531.593	685.403	724.657
C	-516.19	690.645	755.908
C	-506.414	693.699	784.748
C	-517.518	689.058	815.546
C	-544.532	675.034	834.488
C	-566.941	656.511	847.796
C	-577.702	638.78	871.26
C	-580.626	628.976	901.895
C	-590.113	625.491	931.252
C	-612.492	621.446	953.726
C	-638.647	612.032	969.127
C	-657.766	594.309	986.305
C	-663.503	570.029	1007.5
C	-658.982	545.772	1028.53
C	-656.784	524.422	1050.35
C	-667.015	507.183	1074.55
C	-691.452	496.568	1094.55
C	-721.861	488.621	1104.23
C	-749.684	474.74	1108.25
C	-769.773	452.167	1116.93
C	-777.608	427.364	1137.54
C	-773.947	409.248	1165.73
C	-768.841	392.837	1191.67
C	-771.931	366.334	1208.4
C	-787.278	335.147	1208.57
C	-810.894	312.396	1202.79
C	-837.415	296.593	1210.86
C	-858.125	284.437	1233.45
C	-871.864	265.831	1254.31
C	-882.583	234.697	1258.87
C	-887.074	202.607	1246.99
C	-888.046	172.733	1238.74
C	-890.662	142.12	1246.94
C	-899.779	118.361	1268.71
C	-918.234	102.376	1290.25
C	-942.63	86.5806	1302.74
C	-963.651	62.9249	1305.29
C	-969.822	30.1085	1299.89
C	-959.284	-1.36949	1290.55
C	-949.833	-29.7491	1282.5
C	-959.818	-60.2235	1279.55
C	-989.545	-80.0494	1285.49
C	-1018.35	-92.1287	1294.17
C	-1036.34	-117.632	1295.98
C	-1037.56	-151.342	1287.73
C	-1032.07	-181.679	1278.41
C	-1030.73	-212.089	1275.58
C	-1031.75	-242.625	1274.98
C	-1035.06	-271.98	1266.41
C	-1047.46	-296.58	1250.01
C	-1069.91	-316.452	1238.45
C	-1090.82	-339.857	1237.75
C	-1097.43	-371.397	1239.22
C	-1087.88	-403.01	1232.16
C	-1073.81	-427.291	1214.84
C	-1065.5	-447.609	1192.23
C	-1066.28	-469.025	1169.55
C	-1076.85	-493.398	1152
C	-1094.23	-519.002	1143.03
C	-1110.94	-544.668	1137.96
C	-1119.04	-571.747	1125.53
C	-1112.3	-594.562	1101.66
C	-1096.26	-608.244	1075.73
C	-1085.34	-625.839	1053.42
C	-1088.93	-653.396	1036.49
C	-1105.84	-679.189	1024.15
C	-1122.87	-695.477	1003.13
C	-1126.94	-701.002	970.096
C	-1114.88	-703.326	938.589
C	-1099.47	-719.146	915.106
C	-1095.06	-750.703	902.245
C	-1105.64	-782.198	895.721
C	-1119.87	-804.789	878.684
C	-1124.73	-814.599	846.381
C	-1114.65	-811.626	812.813
C	-1098.5	-809.115	785.219
C	-1085.55	-815.882	758.126
C	-1081.47	-831.947	730.9
C	-1087.13	-851.629	706.07
C	-1098.23	-869.043	682.497
C	-1109.38	-881.041	656.415
C	-1114.71	-886.196	626.014
C	-1108.68	-886.214	594.367
C	-1091.52	-887.265	566.894
C	-1071.65	-895.051	543.713
C	-1060.09	-907.992	518.072
C	-1065.11	-915.73	486.437
C	-1083.59	-907.141	457.707
C	-1097.99	-887.47	435.325
C	-1096.98	-873.004	407.104
C	-1080.57	-878.902	375.916
C	-1063.38	-900.886	354.414
C	-1054.75	-916.755	329.653
C	-1054.23	-913.185	296.203
C	-1059.89	-893.991	267.919
C	-1066.47	-879.833	241.382
C	-1071.52	-879.64	210.283
C	-1070.7	-887.016	179.41
C	-1060.32	-886.261	149.747
C	-1043.88	-870.589	125.541
C	-1033.13	-847.078	106.255
C	-1036.46	-826.181	82.3171
C	-1051.64	-817.212	53.849
C	-1063.39	-820.05	23.7747
C	-1058.02	-825.617	-7.98015
C	-1037.22	-825.069	-34.527
C	-1019.25	-813.266	-58.0065
C	-1020.49	-793.493	-84.8279
C	-1040.58	-779.33	-109.422
C	-1057.84	-776.312	-135.821
C	-1057.19	-775.504	-168.22
C	-1042.25	-764.748	-196.214
C	-1032.84	-739.67	-215.518
C	-1038.55	-712.783	-232.805
C	-1048.43	-698.857	-259.808
C	-1046.98	-700.043	-293.471
C	-1033.4	-698.083	-322.46
C	-1021.69	-675.142	-343.558
C	-1023.77	-642.171	-354.189
C	-1032.94	-618.362	-372.489
C	-1035.64	-613.326	-406.645
C	-1026	-623.2	-438.958
C	-1010.5	-621.099	-466.131
C	-998.138	-595.632	-486.212
C	-995.852	-561.519	-493.722
C	-995.954	-534.034	-507.375
C	-991.752	-521.145	-538.098
C	-983.25	-527.976	-571.871
C	-970.498	-532.644	-599.96
C	-953.088	-515.365	-622.345
C	-940.387	-481.522	-627.926
C	-932.467	-450.878	-630.623
C	-918.239	-429.344	-648.734
C	-897.809	-422.58	-674.908
C	-875.814	-417.684	-696.396
C	-856.108	-403.465	-715.076
C	-840.801	-387.027	-735.986
C	-822.506	-376.92	-758.263
C	-794.675	-368.682	-770.931
C	-765.192	-352.848	-766
C	-743.832	-330.634	-755.501
C	-719.894	-311.617	-757.633
C	-689.674	-308.605	-772.742
C	-660.923	-318.595	-785.809
C	-630.292	-320.842	-788.871
C	-600.458	-308.375	-784.878
C	-573.825	-292.713	-780.2
C	-543.596	-287.908	-777.072
C	-512.72	-296.942	-773.673
C	-484.466	-309.001	-768.319
C	-455.091	-312.77	-760.528
C	-425.908	-306.441	-750.487
C	-399.53	-297.901	-736.465
C	-376.613	-297.725	-714.93
C	-362.292	-311.537	-687.942
C	-358.022	-333.879	-663.46
C	-352.895	-354.822	-641.434
C	-337.394	-367.872	-617.78
C	-314.264	-369.053	-594.747
C	-293.89	-365.071	-571.289
C	-283.353	-366.06	-541.883
C	-285.705	-374.01	-510.127
C	-293.566	-383.425	-480.947
C	-295.965	-390.733	-451.495
C	-289.676	-398.304	-422.113
C	-281.718	-411.006	-395.131
C	-284.273	-429.605	-369.966
C	-303.33	-445.773	-348.072
C	-329.772	-450.59	-328.846
C	-349.488	-446.772	-304.294
C	-354.295	-441.709	-272.239
C	-346.509	-440.699	-240.228
C	-338.754	-444.447	-210.362
C	-339.446	-452.011	-180.409
C	-349.405	-462.463	-152.305
C	-364.307	-472.965	-126.938
C	-379.183	-478.822	-100.763
C	-391.266	-471.548	-72.1382
C	-396.791	-447.986	-48.0615
C	-397.386	-424.723	-26.7781
C	-403.897	-415.032	2.31582
C	-416.38	-423.031	32.9242
C	-429.811	-432.748	59.5567
C	-439.904	-424.347	88.3759
C	-440.316	-394.739	109.019
C	-435.177	-361.766	116.657
C	-437.448	-333.595	128.29
C	-452.003	-313.49	149.34
C	-472.161	-302.629	172.509
C	-488.931	-288.744	193.852
C	-498.085	-264.791	212.049
C	-500.122	-234.811	223.726
C	-501.63	-203.554	228.062
C	-506.987	-172.692	224.911
C	-514.338	-143.504	216.61
C	-519.285	-114.036	210.536
C	-519.928	-83.0842	213.77
C	-518.995	-53.6952	224.988
C	-521.929	-24.5694	233.65
C	-530.653	5.6586	229.51
C	-539.99	31.3807	210.597
C	-542.271	50.9382	184.482
C	-535.548	67.9062	158.371
C	-525.592	85.9679	135.346
C	-522.005	109.813	116.166
C	-530.377	139.034	104.467
C	-544.313	167.333	99.049
C	-551.168	194.108	86.1023
C	-543.543	212.427	58.2453
C	-528.85	214.528	26.6285
C	-523.537	216.252	-3.95786
C	-533.396	227.803	-32.7567
C	-548.602	244.619	-55.5464
C	-552.714	262.402	-80.3073
C	-541.349	280.452	-104.988
C	-528.356	299.71	-125.702
C	-530.69	319.12	-150.165
C	-550.308	326.5	-177.661
C	-569.547	320.255	-204.032
C	-573.894	316.186	-235.105
C	-560.142	323.04	-265.822
C	-538.685	335.818	-288.064
C	-522.565	346.058	-311.838
C	-520.262	352.242	-343.148
C	-535.985	356.147	-373.247
C	-559.404	359.694	-395.978
C	-576.423	361.233	-421.211
C	-576.958	357.975	-453.781
C	-561.892	354.401	-483.815
C	-549.455	360.381	-511.802
C	-552.869	377.121	-539.915
C	-567.456	391.929	-564.861
C	-574.27	393.649	-595.428
C	-562.157	381.793	-626.057
C	-541.752	370.143	-649.077
C	-531.635	370.119	-678.39
C	-541.267	381.542	-709.905
C	-558.418	392.717	-735.3
C	-562.664	397.393	-765.463
C	-545.139	395.096	-795.36
C	-516.577	385.183	-813.144
C	-495.038	374.016	-832.089
C	-487.639	369.404	-863.415
C	-494.656	378.449	-896.329
C	-500.263	397.605	-922.284
C	-492.52	418.784	-944.883
C	-472.835	432.558	-966.666
C	-449.22	436.043	-988.321
C	-426.507	434.508	-1009.73
C	-403.979	435.44	-1030.28
C	-381.253	443.28	-1049.49
C	-360.76	457.477	-1068.03
C	-343.916	474.631	-1087.49
C	-329.507	493.627	-1106.9
C	-315.986	517.097	-1121.83
C	-303.4	545.611	-1127.64
C	-289.814	573.939	-1126.36
C	-268.884	596.816	-1126.6
C	-240.609	610.608	-1133.16
C	-213.68	622.087	-1143.51
C	-194.583	645.125	-1152.43
C	-186.819	677.261	-1154.52
C	-179.04	707.167	-1147.66
C	-159.886	728.431	-1132.19
C	-136.557	740.026	-1112.6
C	-119.791	757.712	-1094.21
C	-115.58	788.73	-1083.16
C	-121.009	821.551	-1081.16
C	-123.131	851.303	-1074.81
C	-116.972	875.696	-1054.7
C	-105.483	888.438	-1025.83
C	-93.0754	895.522	-997.523
C	-81.1204	906.307	-971.637
C	-73.3739	923.109	-947.01
C	-77.2066	943.23	-922.613
C	-96.416	961.006	-901.811
C	-122.233	973.922	-886.757
C	-142.141	987.597	-868.218
C	-147.297	1002.39	-839.678
C	-138.901	1010.88	-808.275
C	-134.281	1014.03	-777.757
C	-143.968	1017.21	-747.867
C	-163.609	1020.11	-722.532
C	-183.24	1018.53	-698.611
C	-199.245	1010.74	-673.304
C	-213.776	1001.74	-647.881
C	-230.497	998.448	-622.51
C	-250.002	1001.84	-598.62
C	-272.745	1005.39	-578.136
C	-299.212	1000.62	-562.197
C	-323.872	982.892	-550.693
C	-337.297	954.852	-539.018
C	-336.628	926.522	-521.598
C	-333.429	906.718	-496.713
C	-344.726	896.318	-468.165
C	-373.191	892.729	-448.89
C	-403.771	884.076	-441.44
C	-423.738	859.956	-432.982
C	-427.05	828.32	-420.484
C	-428.476	799.624	-408.466
C	-444.448	773.173	-402.881
C	-470.281	752.982	-405.79
C	-493.086	732.748	-404.675
C	-504.876	707.89	-386.483
C	-502.074	689.028	-357.138
C	-499.526	672.221	-331.158
C	-508.448	646.31	-315.173
C	-525.569	616.62	-315.649
C	-541.187	589.592	-324.146
C	-553.097	561.898	-329.265
C	-563.121	532.941	-329.189
C	-572.733	504.006	-326.381
C	-580.613	474.949	-320.56
C	-583.411	446.624	-307.596
C	-581.306	422.18	-287.424
C	-581.285	398.564	-267.984
C	-589.556	368.843	-260.539
C	-601	338.611	-271.961
C	-602.62	311.189	-289.129
C	-588.4	281.393	-292.069
C	-566.982	259.299	-272.789
C	-554.621	243.294	-246.584
C	-553.264	216.06	-230.187
C	-559.347	181.695	-234.384
C	-561.788	152.526	-250.394
C	-551.599	123.685	-257.425
C	-530.466	99.1209	-245.024
C	-510.197	84.73	-221.82
C	-493.637	65.3381	-205.235
C	-481.076	34.3221	-206.983
C	-476.742	4.98199	-225.565
C	-472.773	-22.1764	-239.425
C	-461.792	-52.3429	-233.498
C	-445.952	-73.7741	-211.074
C	-425.89	-91.5825	-195.283
C	-402.68	-114.858	-201.299
C	-387.742	-136.997	-223.232
C	-378.26	-163.442	-236.197
C	-370.011	-195.037	-228.152
C	-363.549	-221.161	-208.607
C	-354.214	-248.058	-197.926
C	-341.005	-277.176	-204.5
C	-331.411	-302.343	-223.991
C	-329.945	-326.467	-244.349
C	-324.746	-354.265	-256.103
C	-308.283	-382.872	-253.267
C	-287.881	-405.158	-239.126
C	-274.864	-430.718	-228.358
C	-277.314	-464.294	-233.398
C	-294.206	-489.268	-253.922
C	-309.822	-508.187	-274.202
C	-317.284	-535.814	-286.008
C	-315.168	-568.853	-285.684
C	-309.417	-599.625	-279.497
C	-308.75	-630.02	-277.377
C	-318.991	-659.49	-283.662
C	-340.04	-681.535	-296.853
C	-364.584	-695.951	-311.926
C	-386.153	-712.034	-326.399
C	-401.691	-735.961	-338.517
C	-412.737	-764.988	-344.147
C	-426.837	-792.956	-340.023
C	-446.796	-814.643	-326.891
C	-467.478	-832.892	-312.534
C	-488.136	-855.049	-307.338
C	-511.399	-875.562	-317.945
C	-535.781	-886.568	-337.106
C	-564.948	-891.166	-347.871
C	-596.259	-898.357	-339.771
C	-618.673	-913.059	-318.899
C	-635.495	-934.283	-302.484
C	-657.034	-956.596	-297.982
C	-684.519	-972.482	-302.136
C	-715.013	-979.99	-304.852
C	-746.093	-980.852	-298.525
C	-773.648	-974.78	-282.315
C	-794.733	-962.599	-260.933
C	-812.53	-949.1	-239.236
C	-834.207	-940.902	-219.356
C	-862.805	-942.931	-205.244
C	-893.764	-952.336	-200.87
C	-924.255	-958.441	-200.754
C	-954.314	-952.924	-193.923
C	-975.856	-935.466	-174.268
C	-983.556	-915.802	-147.507
C	-990.603	-900.162	-121.677
C	-1010.09	-886.826	-101.381
C	-1039.52	-874.798	-92.8082
C	-1066.87	-859.07	-90.937
C	-1084.15	-833.651	-83.1993
C	-1087.5	-805.283	-65.6575
C	-1089.05	-783.822	-42.2706
C	-1104.98	-770.074	-18.2936
C	-1132.42	-762.459	-1.61334
C	-1156.64	-748.42	11.1951
C	-1164.77	-719.603	26.0909
C	-1152.87	-688.151	37.4839
C	-1139.87	-660.502	45.5664
C	-1137.63	-631.316	54.7998
C	-1144.37	-603.177	67.0286
C	-1152.41	-579.171	85.2406
C	-1158.62	-561.214	110.431
C	-1165.44	-547.737	137.65
C	-1174.79	-528.905	159.836
C	-1182.19	-497.557	167.744
C	-1180.11	-463.785	157.912
C	-1170.17	-434.68	149.285
C	-1158.21	-406.766	161.212
C	-1149.46	-390.089	191.228
C	-1141.64	-376.52	218.261
C	-1130.7	-348.315	229.59
C	-1125.1	-314.458	220.174
C	-1128.9	-283.91	211.764
C	-1135.47	-254.267	222.964
C	-1136.17	-232.216	248.507
C	-1128.74	-210.506	269.654
C	-1119.74	-180.728	276.767
C	-1116.67	-148.693	273.098
C	-1118.06	-118.074	274.253
C	-1115.66	-90.5736	289.958
C	-1104.42	-71.4866	314.491
C	-1087.61	-53.9897	334.19
C	-1073.98	-25.5154	340.001
C	-1074.74	8.12928	328.868
C	-1086.43	36.4777	316.399
C	-1092.65	66.9665	320.296
C	-1083.05	93.5091	341.137
C	-1063.37	112.314	360.04
C	-1047.47	139.453	363.496
C	-1047.32	172.106	350.257
C	-1061.42	198.917	334.564
C	-1075.5	226.275	329.533
C	-1079.26	257.514	337.659
C	-1068.4	285.411	353.435
C	-1049.74	308.338	366.473
C	-1033.12	334.018	371.15
C	-1026.48	365.148	364.788
C	-1032.91	394.233	348.614
C	-1045.13	417.297	329.386
C	-1055.12	440.897	312.714
C	-1060.63	469.927	303.337
C	-1062.41	501.721	303.521
C	-1061.51	532.624	306.136
C	-1056.8	562.359	298.739
C	-1047.83	585.015	276.045
C	-1040.5	598.295	246.94
C	-1043.14	615.466	221.141
C	-1061.04	640.578	206.96
C	-1086.54	662.945	205.355
C	-1108.07	682.846	197.014
C	-1115.43	703.816	172.218
C	-1103.4	721.223	144.091
C	-1089.52	739.427	122.476
C	-1090.1	760.8	99.9575
C	-1107.26	773.504	73.9703
C	-1126.14	772.512	46.8513
C	-1134.54	772.463	16.9946
C	-1134.41	785.335	-12.2935
C	-1136.41	807.218	-35.4267
C	-1150.35	825.497	-56.77
C	-1174.24	830.901	-78.6332
C	-1196.93	825.063	-101.021
C	-1210.47	816.476	-128.217
C	-1211.95	808.66	-159.513
C	-1207.93	801.287	-189.766
C	-1212.6	794.684	-219.176
C	-1231.9	793.636	-245.277
C	-1254.49	799.469	-267.05
C	-1265.33	803.076	-295.762
C	-1258.45	794.226	-328.238
C	-1248.68	775.049	-353.297
C	-1258.37	757.349	-378.116
C	-1287.93	753.131	-397.88
C	-1317.09	755.507	-411.982
C	-1335.53	742.612	-433.991
C	-1331.8	714.014	-456.981
C	-1315.24	690.266	-475.045
C	-1308.93	678.398	-503.71
C	-1320.46	680.054	-536.701
C	-1338.44	679.636	-563.216
C	-1348.04	661.875	-587.931
C	-1346.6	635.857	-608.367
C	-1348.69	615.17	-630.315
C	-1361.92	598.729	-653.517
C	-1374.94	577.601	-671.318
C	-1374.15	550.099	-687.533
C	-1363.83	530.083	-710.21
C	-1362.8	522.057	-741.771
C	-1375.99	514.67	-770.222
C	-1386.97	492.226	-790.175
C	-1379.04	461.408	-802.735
C	-1356.88	440.823	-817.43
C	-1340.27	432.311	-844.144
C	-1342.94	426.044	-877.211
C	-1361.1	411.525	-902.194
C	-1376.6	385.74	-915.846
C	-1375	355.057	-927.53
C	-1353.98	333.316	-944.708
C	-1327.66	328.606	-966.776
C	-1310.47	326.231	-993.066
C	-1306.89	309.376	-1020.81
C	-1315.81	279.62	-1037.3
C	-1322.06	249.455	-1045.81
C	-1312.68	224.78	-1063.46
C	-1289.63	216.837	-1089.22
C	-1268.13	218.113	-1113.73
C	-1253.17	206.848	-1138.06
C	-1243.55	182.27	-1157.11
C	-1228.33	159.235	-1171.11
C	-1199.74	150.788	-1184.96
C	-1169.35	157.361	-1197.7
C	-1144.44	159.164	-1215.42
C	-1127.53	145.154	-1239.76
C	-1119.01	122.613	-1262.11
C	-1104.32	102.901	-1280.31
C	-1075.87	91.9532	-1291.9
C	-1042.11	92.2653	-1293.67
C	-1010.92	98.0524	-1294.08
C	-982.205	104.611	-1303.54
C	-957.814	109.535	-1323.29
C	-935.143	110.07	-1344.41
C	-906.237	104.786	-1355.33
C	-874.18	96.5903	-1347.17
C	-847.721	93.4184	-1326.51
C	-821.85	99.6235	-1309.85
C	-792.562	112.998	-1306.99
C	-764.146	125.732	-1317.02
C	-735.79	132.782	-1327.29
C	-704.86	136.26	-1326.29
C	-676.915	141.075	-1309.49
C	-659.267	151.495	-1282.91
C	-649.155	167.599	-1256.91
C	-636.36	186.017	-1235.87
C	-614.117	201.853	-1220.64
C	-585.266	211.562	-1211.02
C	-557.079	219.239	-1201.33
C	-534.778	232.336	-1184.41
C	-524.257	251.391	-1159.93
C	-524.709	269.813	-1132.93
C	-526.615	282.522	-1104.47
C	-522.607	287.5	-1073.88
C	-510.8	286.023	-1044.44
C	-494.384	285.714	-1018.08
C	-479.967	296.257	-992.611
C	-477.106	319.653	-969.257
C	-489.05	343.837	-949.406
C	-505.06	355.835	-924.395
C	-511.513	350.991	-891.478
C	-505.771	337.596	-861.077
C	-503.001	332.535	-831.175
C	-514.268	341.121	-801.54
C	-533.191	354.338	-778.485
C	-544.811	361.25	-751.204
C	-540.559	356.729	-718.279
C	-526.169	344.989	-690.45
C	-516.393	332.341	-664.143
C	-518.744	319.003	-635.854
C	-535.694	312.223	-608.246
C	-558.926	318.256	-584.982
C	-575.434	333.133	-561.947
C	-578.936	343.869	-532.132
C	-573.771	336.66	-499.477
C	-574.864	313.515	-474.463
C	-589.767	292.919	-454.382
C	-606.447	285.214	-428.812
C	-608.379	283.077	-396.636
C	-596.631	272.594	-367.854
C	-589.348	251.078	-345.503
C	-595.641	230.818	-322.15
C	-607.546	225.713	-292.214
C	-612.962	238.045	-260.938
C	-611.338	254.209	-233.23
C	-612.114	260.195	-203.248
C	-619.547	249.597	-172.892
C	-627.642	228.107	-149.051
C	-626.97	208.492	-124.941
C	-612.806	200.995	-96.1068
C	-591.64	210.282	-70.3818
C	-575.839	226.371	-47.4283
C	-570.418	238.375	-19.0065
C	-575.094	240.267	13.2358
C	-581.962	232.585	43.696
C	-582.384	220.731	72.5593
C	-574.623	210.192	100.836
C	-562.229	206.702	129.292
C	-548.618	215.364	157.02
C	-533.974	235.071	178.716
C	-515.099	255.224	194.069
C	-491.455	264.986	211.833
C	-472.203	260.619	238.075
C	-466.19	251.602	269.374
C	-465.302	253.374	300.883
C	-456.359	271.785	326.825
C	-438.47	298.574	339.078
C	-420.975	323.382	347.311
C	-410.744	344.916	367.131
C	-410.199	357.049	398.285
C	-410.726	359.563	430.502
C	-401.665	364.369	459.602
C	-384.225	382.046	480.741
C	-370.756	412.792	488.296
C	-369.416	446.073	489.099
C	-373.723	475.582	498.489
C	-375.088	496.857	523.354
C	-372.035	506.596	555.058
C	-370.413	517.822	583.504
C	-374.29	543.066	602.848
C	-379.705	576.898	605.604
C	-379.507	608.839	601.693
C	-374.802	638.612	608.074
C	-374.808	662.601	630.467
C	-388.041	675.483	659.288
C	-411.659	683.695	680.772
C	-436.273	699.979	692.4
C	-452.741	728.134	696.206
C	-458.692	760.319	695.905
C	-465.008	790.265	697.776
C	-482.776	814.883	705.84
C	-511.601	826.451	719.201
C	-542.065	825.885	732.395
C	-571.351	826.325	742.018
C	-599.96	837.418	747.074
C	-623.724	859	748.649
C	-643.547	882.682	752.505
C	-666.873	899.584	763.696
C	-695.815	902.089	778.73
C	-726.509	891.196	786.095
C	-756.086	878.53	778.684
C	-783.596	873.915	762.479
C	-812.747	877.211	752.224
C	-844.247	881.939	759.789
C	-869.504	882.297	782.569
C	-891.913	877.678	803.898
C	-921.483	869.39	811.422
C	-951.7	858.065	799.388
C	-973.836	844.513	778.574
C	-995.696	828.333	764.521
C	-1023.84	813.137	765.146
C	-1052.79	804.36	778.296
C	-1079.81	794.883	789.311
C	-1103.65	773.546	786.423
C	-1116.77	745.697	771.921
C	-1131.42	720.769	762.504
C	-1159.24	703.958	766.167
C	-1189.57	695.734	772.13
C	-1213.58	677.569	762.412
C	-1220.23	649.337	742.636
C	-1223.07	618.758	734.153
C	-1239.23	591.005	741.947
C	-1263.71	572.039	752.102
C	-1286.42	551.166	749.03
C	-1299.95	525.462	734.102
C	-1304.77	498.757	717.271
C	-1306.98	472.304	701.407
C	-1310.13	447.072	684.607
C	-1318.31	421.395	670.129
C	-1333.62	393.425	667.405
C	-1348.53	366.314	679.083
C	-1353.08	337.104	689.3
C	-1345.48	305.545	678.266
C	-1335.96	288.893	646.452
C	-1338.11	278.707	615.463
C	-1347.94	255.061	596.195
C	-1352.01	220.45	595.621
C	-1342.56	188.976	605.064
C	-1327.78	161.447	607.923
C	-1319.17	132.907	597.568
C	-1322.32	107.485	576.263
C	-1330.3	88.51	551.402
C	-1330.23	70.5793	526.334
C	-1314.73	51.4845	505.172
C	-1288.04	34.5477	494.03
C	-1261	19.0134	488.606
C	-1238.93	0.267553	479.01
C	-1224.54	-21.5241	461.432
C	-1215.33	-41.4402	438.909
C	-1201.44	-55.5545	415.279
C	-1177.41	-60.7914	394.693
C	-1148.69	-60.024	380.375
C	-1121.32	-64.8785	367.574
C	-1098.37	-80.9056	353.247
C	-1078.06	-98.9879	338.63
C	-1051.78	-103.574	322.249
C	-1026.18	-85.2283	306.428
C	-1011.55	-57.3521	293.31
C	-995.381	-37.3442	276.905
C	-969.252	-30.519	259.576
C	-939	-32.3558	248.187
C	-910.065	-29.3018	238.788
C	-885.091	-15.5055	225.973
C	-866.047	5.83397	212.064
C	-850.537	30.6389	201.008
C	-838.093	57.5327	192.083
C	-828.976	84.9639	181.665
C	-817.816	111.028	170.625
C	-797.173	134.443	167.111
C	-771.74	152.842	177.589
C	-754.115	173.509	193.818
C	-750.017	205.015	201.768
C	-754.316	237.723	198.16
C	-748.413	267.636	196.973
C	-727.232	291.488	205.782
C	-705.111	310.855	216.844
C	-696.704	340.868	221.798
C	-708.999	373.56	222.331
C	-726.127	399.522	231.124
C	-726.636	422.975	254.439
C	-703.84	439.19	277.204
C	-675.715	455.05	285.531
C	-661.111	483.651	288.273
C	-670.308	516.976	296.277
C	-691.614	538.721	313.369
C	-702.384	556.722	336.861
C	-693.512	579.402	359.409
C	-671.396	600.638	373.763
C	-651.731	617.842	390.168
C	-643.248	631.014	418.043
C	-647.582	640.515	449.274
C	-654.977	655.881	475.41
C	-656.995	681.857	493.854
C	-650.773	710.785	506.178
C	-636.785	734.107	521.859
C	-617.112	745.845	545.063
C	-598.008	746.083	571.634
C	-585.17	744.526	600.121
C	-581.117	747.858	631.065
C	-581.742	753.906	661.58
C	-573.847	756.183	691.07
C	-548.277	752.052	712.686
C	-514.439	748.031	718.736
C	-484.106	752.184	724.908
C	-461.685	761.553	745.775
C	-450.274	764.201	776.92
C	-438.967	753.756	805.143
C	-416.84	737.544	822.473
C	-386.532	726.856	829.099
C	-356.386	721.721	835.011
C	-330.534	711.669	847.994
C	-312.139	691.441	864.575
C	-297.517	665.49	875.254
C	-277.972	640.378	873.506
C	-254.813	621.865	858.695
C	-234.254	607.336	839.309
C	-216.112	587.903	824.287
C	-198.52	563.188	817.202
C	-180.085	538.589	814.265
C	-160.912	515.542	808.842
C	-144.143	491.813	799.23
C	-132.239	466.355	786.416
C	-124.504	442.292	768.22
C	-119.934	425.486	741.371
C	-119.82	417.751	709.922
C	-124.736	408.652	680.719
C	-132.383	387.374	658.482
C	-136.288	357.568	645.865
C	-131.008	329.455	633.066
C	-118.688	309.634	611.313
C	-110.257	298.013	582.819
C	-117.78	286.516	553.505
C	-141.945	274.617	532.394
C	-167.503	265.88	515.809
C	-180.642	260.479	487.772
C	-174.375	259.182	453.753
C	-166.029	258.284	423.533
C	-177.6	252.196	394.335
C	-204.8	237.648	377.324
C	-227.362	218.598	365.504
C	-238.652	202.297	341.096
C	-240.01	200.003	307.188
C	-243.359	210.171	276.206
C	-260.258	219.663	250.93
C	-287.577	222.254	233.095
C	-313.28	224.534	216.358
C	-328.807	236.171	191.458
C	-331.726	253.517	163.639
C	-338.385	265.248	136.315
C	-359.844	263.771	111.386
C	-384.908	251.502	93.3545
C	-402.314	243.059	69.6673
C	-410.002	249.809	38.2281
C	-415.25	272.199	13.3776
C	-431.795	297.881	0.709517
C	-459.89	313.669	-6.19246
C	-487.896	317.491	-21.3879
C	-502.267	317.769	-51.8056
C	-497.387	324.476	-85.7017
C	-489.435	343.932	-111.103
C	-496.664	373.335	-125.867
C	-520.321	398.923	-129.256
C	-546.573	416.418	-133.719
C	-565.036	433.815	-152.406
C	-568.133	448.436	-183.292
C	-562.109	457.457	-214.37
C	-561.022	468.758	-242.641
C	-568.59	489.382	-265.403
C	-579.638	517.541	-277.819
C	-588.688	546.163	-286.361
C	-596.442	570.476	-303.283
C	-602.811	585.787	-330.911
C	-603.639	595.319	-361.274
C	-594.436	610.991	-387.079
C	-576.193	635.499	-400.782
C	-558.517	662.48	-404.645
C	-548.464	690.481	-412.535
C	-548.356	717.728	-429.098
C	-553.614	742.286	-448.059
C	-553.666	768.741	-463.185
C	-539.97	796.656	-471.539
C	-512.731	816.891	-472.756
C	-481.681	827.377	-471.435
C	-453.501	839.221	-472.457
C	-432.007	861.473	-477.185
C	-420.514	891.047	-483.745
C	-411.092	920.209	-487.984
C	-392.948	945.281	-485.374
C	-367.268	961.989	-474.195
C	-341.563	973.553	-460.011
C	-317.434	988.94	-449.626
C	-294.909	1009.23	-444.088
C	-273.669	1029.28	-435.307
C	-254.838	1042.81	-413.266
C	-243.896	1045.27	-381.368
C	-237.108	1045.07	-350.555
C	-224.538	1055.68	-324.416
C	-205.472	1079.37	-310.042
C	-184.823	1104.89	-306.99
C	-160.788	1122.75	-299.745
C	-135.159	1125.18	-278.144
C	-122.107	1110.25	-247.688
C	-122.64	1095.32	-217.647
C	-122.739	1095.37	-185.982
C	-115.197	1112.8	-158.055
C	-103.815	1135.14	-137.448
C	-97.6279	1150.41	-111.819
C	-100.425	1153.81	-79.6147
C	-102.219	1148.99	-48.289
C	-89.3299	1144.37	-19.5838
C	-66.2475	1142.15	3.04331
C	-50.7393	1138.88	28.9395
C	-53.6843	1132.04	61.2342
C	-65.6275	1124.14	90.2773
C	-66.5172	1118.6	120.236
C	-56.8306	1119.76	150.479
C	-54.5934	1127.63	180.424
C	-69.8148	1135.67	208.35
C	-89.4131	1136.89	233.2
C	-93.8365	1132.45	264.181
C	-76.7152	1127.66	294.142
C	-54.7563	1125.42	317.768
C	-45.5745	1121.27	346.816
C	-57.148	1113.11	377.985
C	-81.6461	1106.78	400.94
C	-104.088	1109.05	422.828
C	-116.077	1120.93	450.129
C	-113.77	1133.71	480.367
C	-103.062	1134.83	511.234
C	-94.2846	1120.72	539.775
C	-95.9703	1100.71	565.136
C	-109.987	1087.77	591.068
C	-129.992	1089.17	617.305
C	-144.324	1101.34	643.722
C	-145.056	1115.01	672.979
C	-132.494	1122.3	702.571
C	-118.003	1120	730.918
C	-115.544	1109.66	761.048
C	-131.684	1096.8	788.108
C	-156.38	1090.14	808.902
C	-173.703	1091.67	834.626
C	-172.044	1096.42	867.835
C	-153.686	1095.05	896.98
C	-138.446	1084.05	922.488
C	-140.194	1071.18	951.769
C	-157.753	1067.88	980.502
C	-173.789	1072.37	1007.34
C	-174.932	1069.54	1038.64
C	-160.933	1051.79	1065.08
C	-148.2	1028.34	1083.43
C	-148.716	1011.07	1109.39
C	-158.749	1009.03	1141.49
C	-161.403	1014.88	1172.7
C	-146.358	1012.03	1201.58
C	-122.841	994.16	1219.73
C	-109.046	967.63	1232.96
C	-109.011	942.374	1252.89
C	-111.603	925.815	1279.8
C	-100.073	915.553	1307.6
C	-72.3261	906.692	1324.91
C	-43.7813	892.055	1330.85
C	-27.2219	865.803	1339.07
C	-26.7858	835.922	1354.68
C	-27.6531	811.63	1374.49
C	-10.3012	792.023	1392.84
C	23.758	782.393	1397.81
C	55.9948	777.011	1389.36
C	80.5412	759.547	1380.02
C	93.7386	729.018	1376.49
C	99.8653	697.459	1377.79
C	114.126	670.569	1376.01
C	140.172	653.731	1364.95
C	166.639	648.853	1344.86
C	185.645	643.695	1320.16
C	199.667	628.849	1296.61
C	215.369	606.504	1280.94
C	237.66	585.863	1272.8
C	263.369	572.592	1261.81
C	282.67	565.476	1237.03
C	286.043	563.336	1202.88
C	283.078	563.749	1170.95
C	292.115	565.449	1141.59
C	313.731	568.491	1117.8
C	332.552	569.81	1093.82
C	333.742	567.255	1061.34
C	316.035	564.639	1031.57
C	299.695	569.389	1005.22
C	299.701	579.397	974.915
C	317.244	584.387	946.379
C	335.682	582.131	920.748
C	340.558	584.464	890.162
C	327.305	601.572	862.606
C	307.854	626.375	848.433
C	295.13	646.059	829.113
C	291.687	649.646	795.631
C	293.649	637.922	763.479
C	287.707	636.087	733.665
C	271.717	658.282	711.202
C	256.86	690.354	705.83
C	245.167	715.685	693.671
C	236.141	729.155	664.922
C	232.891	732.557	632.267
C	230.943	742.512	603.46
C	223.905	763.246	580.721
C	207.163	785.643	564.876
C	182.233	802.243	553.358
C	156.517	816.467	543.559
C	136.791	836.409	531.233
C	128.046	860.266	511.647
C	128.921	877.198	483.367
C	130.649	883.744	451.841
C	124.856	893.225	423.334
C	109.947	918.56	407.04
C	93.2745	950.059	411.359
C	77.1415	976.438	415.17
C	58.0979	995.968	396.82
C	46.8641	998.245	361.7
C	44.1504	998.128	329.395
C	37.1519	1013.07	302.895
C	21.988	1038.35	287.381
C	3.57046	1062.03	277.297
C	-9.36435	1084.84	261.737
C	-8.21822	1110.23	241.967
C	4.34441	1134.64	224.44
C	12.9617	1155.66	203.885
C	6.00935	1168.07	173.962
C	-14.2137	1166.79	145.458
C	-35.0254	1167.14	122.106
C	-50.7446	1183.76	100.011
C	-57.4053	1213.29	84.8762
C	-56.0735	1242.25	71.4126
C	-47.6044	1262.2	47.6932
C	-38.3666	1268.84	16.5612
C	-37.0803	1269.46	-15.3456
C	-48.5559	1275.43	-44.5959
C	-67.341	1290.34	-66.6822
C	-79.2515	1311.31	-86.6253
C	-73.4986	1331.56	-111.731
C	-53.5943	1340.49	-138.131
C	-38.3279	1338.42	-166.387
C	-39.8061	1332.66	-198.617
C	-53.8878	1329.85	-228.167
C	-64.3608	1334.84	-256.849
C	-62.9031	1348.24	-285.92
C	-54.0829	1365.15	-311.538
C	-46.6091	1378.61	-337.91
C	-40.1573	1381.57	-368.409
C	-29.375	1369.51	-397.272
C	-14.6656	1348.86	-418.316
C	-3.23492	1330.61	-440.082
C	-2.9689	1320.91	-470.596
C	-13.2532	1320.81	-502.138
C	-19.9275	1320.87	-532.081
C	-12.0861	1315.36	-562.323
C	8.34884	1307.13	-586.887
C	30.1315	1298.33	-607.573
C	47.3377	1284.64	-629.007
C	59.818	1263.12	-648.161
C	71.5116	1238.66	-663.276
C	85.8844	1219.09	-681.678
C	98.356	1208.83	-708.985
C	101.669	1201.8	-739.838
C	98.4669	1182.36	-764.767
C	99.0103	1148.1	-771.857
C	111.633	1116.5	-763.954
C	134.564	1093.84	-765.729
C	156.793	1080	-787.758
C	169.625	1070.6	-816.576
C	183.489	1051.33	-836.076
C	202.068	1022.69	-836.575
C	217.082	995.376	-823.679
C	225.712	966.784	-815.477
C	229.054	935.469	-819.166
C	232.492	906.7	-832.286
C	242.651	881.413	-847.361
C	259.224	856.622	-856.051
C	275.565	829.469	-849.745
C	284.102	804.925	-827.733
C	287.944	783.204	-805.178
C	297.134	753.897	-798.123
C	310.335	724.691	-811.823
C	324.929	700.325	-824.868
C	344.541	675.638	-816.466
C	361.654	659.431	-790.737
C	371.255	640.222	-768.22
C	369.752	608.434	-758.292
C	358.735	576.879	-758.093
C	354.689	548.076	-749.189
C	371.86	525.789	-728.901
C	399.755	518.453	-708.764
C	418.574	508.378	-686.777
C	420.552	487.408	-661.255
C	413.313	461.312	-642.555
C	417	432.147	-631.41
C	434.582	405.939	-623.814
C	453.464	386.674	-607.821
C	461.278	376.454	-576.623
C	455.695	375.983	-542.73
C	448.595	369.821	-513.27
C	446.482	346.564	-490.445
C	449.457	313.854	-480.973
C	455.211	284.671	-472.039
C	463.625	265.671	-447.521
C	471.099	266.633	-412.751
C	472.819	276.332	-381.238
C	470.107	272.772	-350.65
C	467.771	249.581	-326.082
C	471.674	220.297	-311.063
C	480.921	199.429	-290.337
C	486.966	194.693	-257.944
C	482.004	204.037	-225.231
C	471.037	211.745	-196.617
C	464.117	208.858	-166.698
C	466.207	196.123	-137.248
C	472.383	179.992	-110.919
C	473.347	165.901	-83.8788
C	464.365	158.41	-54.5923
C	447.848	161.617	-26.639
C	430.934	174.191	-2.20445
C	419.336	189.924	22.0704
C	416.482	201.506	50.9819
C	423.98	202.089	82.9781
C	436.658	191.499	111.561
C	444.864	178.691	138.618
C	441.746	173.562	169.546
C	425.762	182.962	198.309
C	405.081	203.381	216.516
C	387.996	226.041	230.53
C	377.224	246.993	250.314
C	374.478	262.384	278.113
C	375.929	269.877	309.133
C	371.031	274.011	339.369
C	353.087	281.788	364.599
C	329.398	298.01	380.287
C	315.173	323.83	393.077
C	318.265	352.487	409.85
C	327.676	375.541	429.862
C	322.303	397.374	451.192
C	296.76	415.721	465.361
C	267.558	428.617	472.328
C	247.575	446.132	487.546
C	243.546	468.44	512.205
C	250.1	491.618	534.337
C	252.032	519.689	547.783
C	242.061	550.906	550.08
C	221.925	576.789	543.925
C	197.959	596.533	536.809
C	175.317	616.548	532.096
C	159.21	642.778	529.623
C	154.61	674.712	530.103
C	158.682	706.234	535.315
C	160.024	735.485	545.244
C	150.042	763.206	555.715
C	129.447	787.98	558.353
C	107.054	809.292	547.087
C	91.3159	827.672	524.855
C	82.4007	846.479	501.218
C	75.4708	871.34	484.173
C	69.7534	902.446	478.546
C	66.6826	934.093	480.833
C	63.2956	964.292	478.628
C	53.0701	990.06	462.521
C	34.3913	1001.88	435.96
C	14.0766	1004.23	410.501
C	-1.49818	1016.38	387.246
C	-3.70354	1045.61	369.719
C	7.55986	1078.12	363.68
C	14.0501	1106.45	354.386
C	3.28824	1127.14	330.113
C	-18.8857	1128.33	301.194
C	-35.6242	1126.8	274.561
C	-43.1369	1140.37	247.053
C	-44.1907	1165.51	225.731
C	-49.1928	1189.16	206.728
C	-61.1879	1203.4	181.644
C	-73.0811	1205.08	151.474
C	-79.3145	1198.39	120.618
C	-82.797	1189.34	91.0698
C	-92.4164	1183.3	62.6961
C	-112.512	1186.93	37.836
C	-130.792	1202.43	16.0895
C	-134.889	1222.48	-9.01426
C	-124.386	1233.21	-38.8676
C	-113.672	1226.09	-69.9195
C	-118.054	1206.61	-97.6201
C	-138.566	1188.66	-118.13
C	-163.373	1180.01	-136.579
C	-182.147	1177.21	-161.179
C	-189.094	1174.73	-192.348
C	-184.961	1170.09	-224.094
C	-177.877	1164.6	-253.896
C	-176.64	1159.86	-283.989
C	-187.595	1153.69	-313.01
C	-210.473	1141.01	-333.605
C	-234.613	1120.53	-343.31
C	-249.957	1096.35	-355.59
C	-252.022	1077.59	-382.953
C	-242.883	1073.12	-416.291
C	-236.743	1067.82	-445.954
C	-240.335	1045.81	-469.493
C	-249.753	1014.76	-479.933
C	-257.781	986.253	-489.069
C	-265.583	961.643	-505.492
C	-278.214	941.132	-524.95
C	-297.025	923.954	-542.841
C	-315.729	908.109	-561.181
C	-324.799	887.971	-583.008
C	-317.438	860.197	-600.413
C	-300.907	829.827	-601.813
C	-293.383	799.38	-594.391
C	-304.642	768.408	-595.739
C	-328.48	748.061	-612.562
C	-347.493	734.345	-634.873
C	-355.44	709.939	-652.796
C	-350.92	677.021	-659.373
C	-341.91	645.727	-656.981
C	-339.027	615.293	-652.555
C	-346.79	585.397	-646.364
C	-362.577	558.995	-638.474
C	-378.485	533.364	-632.778
C	-386.042	503.209	-633.4
C	-378.164	471.566	-638.77
C	-357.814	445.333	-640.188
C	-338.083	421.984	-631.809
C	-331.544	394.413	-617.155
C	-343.728	364.989	-605.348
C	-363.642	339.691	-599.553
C	-374.545	312.755	-590.49
C	-366.492	284.802	-574.06
C	-344.457	264.344	-558.007
C	-325.685	244.136	-544.401
C	-320.176	218.784	-526.72
C	-328.492	197.881	-502.343
C	-336.429	186.539	-473.51
C	-328.665	175.076	-445.016
C	-303.67	155.999	-429.939
C	-278.231	132.329	-432.87
C	-262.296	105.616	-432.203
C	-254.286	80.9681	-411.597
C	-251.772	72.2935	-377.249
C	-244.71	74.6768	-345.286
C	-228.161	72.4171	-318.939
C	-207.846	58.5485	-298.521
C	-191.594	36.1779	-282.495
C	-177.939	13.8279	-266.37
C	-158.522	-0.629488	-247.32
C	-131.741	-1.18402	-228.424
C	-104.66	6.79153	-212.914
C	-79.4902	7.6248	-195.871
C	-59.1208	-6.37339	-175.185
C	-46.2671	-25.7816	-153.161
C	-32.0984	-33.8193	-126.865
C	-12.2858	-21.3193	-102.101
C	10.5303	0.826144	-89.9017
C	38.6332	13.2092	-82.7967
C	68.3003	7.79821	-69.7256
C	86.3582	-11.4419	-47.1083
C	93.7746	-28.4477	-20.1926
C	108.974	-34.761	5.95892
C	137.355	-28.8691	23.1285
C	165.856	-15.0148	32.131
C	185.335	1.77541	50.0318
C	193.433	18.115	77.0802
C	204.149	32.2355	101.885
C	229.791	41.9763	118.591
C	259.31	43.1644	131.174
C	278.3	41.7441	156.39
C	279.563	45.136	190.475
C	278.014	57.2699	219.949
C	292.638	76.3531	241.729
C	320.262	94.2518	251.003
C	346.426	109.005	259.069
C	362.464	125.019	281.07
C	359.621	137.312	313.911
C	345.89	143.32	344.01
C	340.199	152.59	372.422
C	352.728	170.093	397.606
C	378.68	189.456	410.284
C	402.975	207.245	419.248
C	417.731	227.105	437.93
C	417.289	245.582	465.881
C	406.887	257.138	495.094
C	398.804	264.867	523.971
C	398.237	276.908	552.168
C	403.265	300.358	573.554
C	408.037	331.483	583.312
C	407.697	360.442	593.726
C	399.813	378.371	620.03
C	385.613	376.833	652.613
C	369.992	375.739	679.61
C	359.18	395.51	702.91
C	362.266	427.491	716.935
C	368.556	453.327	732.984
C	358.582	468.087	760.472
C	330.409	467.448	783.426
C	302.331	467.975	798.36
C	287.72	485.218	821.471
C	295.863	510	846.558
C	303.867	528.641	870.269
C	286.246	540.161	896.42
C	250.192	539.121	907.634
C	218.934	541.569	912.587
C	196.884	559.625	927.551
C	185.289	582.758	947.615
C	165.19	595.872	966.623
C	133.75	591.763	979.247
C	104.886	580.824	988.402
C	80.4341	580.459	1007.34
C	63.7015	592.151	1033.19
C	47.5965	604.523	1056.4
C	21.4807	610.265	1072.56
C	-10.5665	611.209	1077.99
C	-41.5893	613.838	1079.18
C	-70.8346	617.573	1086.84
C	-96.7182	613.704	1104.79
C	-116.301	597.633	1125.59
C	-136.194	577.57	1139.12
C	-166.566	567.556	1142.43
C	-199.848	577.764	1137.68
C	-226.422	597.049	1136.09
C	-255.057	604.362	1146.56
C	-280.55	585.64	1164.19
C	-291.553	551.269	1171.77
C	-305.552	522.684	1165.97
C	-334.128	508.751	1156
C	-367.912	509.44	1153.77
C	-398.249	507.501	1163.13
C	-423.344	493.476	1177.02
C	-445.108	472.444	1185.79
C	-468.25	451.452	1185.39
C	-490.465	430.817	1176.84
C	-505.96	406.849	1163.26
C	-514.949	380.756	1148.34
C	-528.952	357.14	1135.19
C	-556.858	341.718	1128.57
C	-589.659	335.926	1132.37
C	-617.543	324.382	1138.97
C	-635.184	296.426	1137.18
C	-635.114	263.688	1122.49
C	-628.801	238.154	1102.58
C	-630.528	213.42	1084.74
C	-642.888	186.909	1072.99
C	-660.378	161.437	1066.7
C	-675.922	135.795	1060.72
C	-685.269	107.285	1054.13
C	-687.679	76.4075	1050.36
C	-687.143	45.5223	1049.28
C	-688.626	15.591	1043.44
C	-692.03	-10.1256	1024.8
C	-691.764	-25.9007	995.526
C	-683.407	-36.4986	966.466
C	-668.703	-54.5984	945.395
C	-654.952	-84.5239	938.967
C	-649.001	-117.231	946.398
C	-645.695	-147.393	953.26
C	-635.462	-176.244	947.036
C	-617.688	-195.941	925.639
C	-599.686	-205.778	899.922
C	-583.991	-219.953	877.978
C	-570.834	-244.283	863.045
C	-559.438	-273.032	855.804
C	-544.197	-299.722	852.096
C	-520.221	-320.102	850.189
C	-489.492	-330.438	850.373
C	-458.02	-333.726	849.056
C	-429.051	-339.323	839.799
C	-406.668	-354.063	822.105
C	-391.224	-377.173	806.058
C	-372.254	-401.793	801.496
C	-343.243	-416.153	808.701
C	-310.137	-412.041	816.825
C	-280.037	-398.63	815.334
C	-250.874	-391.593	807.372
C	-220.32	-399.948	803.205
C	-195.111	-421.768	808.744
C	-175.509	-445.074	818.401
C	-150.039	-461.137	823.641
C	-116.839	-461.484	822.298
C	-87.087	-443.828	821.198
C	-64.9722	-421.121	830.325
C	-43.9584	-407.026	849.838
C	-18.2087	-406.082	868.883
C	12.4148	-411.391	877.199
C	43.5555	-413.427	878.762
C	72.8192	-411.822	887.268
C	97.4069	-412.82	907.214
C	118.804	-417.775	929.283
C	145.032	-418.931	944.938
C	173.826	-407.155	953.552
C	193.994	-382.368	962.481
C	200.764	-354.982	980.19
C	201.493	-335.853	1006.59
C	210.19	-327.243	1036.09
C	233.522	-327.319	1059.97
C	263.434	-330.752	1073.52
C	289.447	-328.82	1089.32
C	301.729	-317.032	1117.79
C	292.489	-300.756	1148.46
C	278.89	-287.744	1174.49
C	278.073	-277.514	1203.49
C	290.945	-269.807	1232.15
C	304.92	-260.166	1257.97
C	309.13	-242.889	1283.54
C	302.641	-220.393	1305.73
C	293.562	-199.295	1326.54
C	288.222	-184.077	1352.69
C	286.506	-177.3	1383.48
C	282.825	-173.466	1413.86
C	270.324	-161.762	1439.95
C	248.658	-139.436	1453.38
C	225.578	-115.555	1454.64
C	203.363	-95.8369	1461.47
C	183.469	-83.1985	1483.44
C	169.123	-77.527	1512.01
C	152.337	-66.7388	1534.96
C	129.092	-44.2704	1542.64
C	107.264	-19.3064	1532.89
C	85.8578	0.950366	1522.6
C	58.6799	16.2819	1523.8
C	29.607	24.6806	1535.23
C	1.10901	31.3659	1544.67
C	-27.8402	43.0405	1540.78
C	-50.7162	57.9255	1521.09
C	-65.789	70.4876	1494.91
C	-81.8063	80.1008	1470.48
C	-104.007	88.1491	1450.79
C	-130.903	94.7972	1436.57
C	-158.632	99.4377	1424.07
C	-183.632	101.837	1406.54
C	-200.499	103.414	1379.65
C	-204.381	107.172	1347.1
C	-200.717	114.69	1316.17
C	-202.035	123.348	1286.93
C	-213.457	126.736	1258.09
C	-226.465	119.814	1230.09
C	-225.73	105.664	1201.07
C	-205.445	95.2935	1175.36
C	-180.131	96.897	1154.15
C	-166.804	105.185	1126.7
C	-170.75	109.433	1093.88
C	-178.406	102.118	1063.43
C	-169.694	86.011	1036.5
C	-141.743	72.371	1020.12
C	-110.278	69.0449	1010.34
C	-85.2517	70.9327	991.986
C	-70.361	72.695	963.462
C	-60.8287	72.5427	933.567
C	-43.9556	72.46	908.115
C	-14.9924	74.4432	893.328
C	18.5042	76.8894	892.89
C	49.8628	75.539	897.65
C	79.6476	67.7459	895.01
C	104.914	56.1684	878.255
C	122.911	49.4216	851.676
C	141.572	54.0573	826.438
C	167.874	69.3157	813.518
C	197.259	86.0599	817.507
C	225.9	96.632	826.734
C	255.804	103.152	829.057
C	285.425	109.65	821.425
C	311.803	117.897	806.257
C	334.003	126.977	786.021
C	352.302	136.762	762.873
C	369.405	151.885	742.209
C	387.84	177.451	734.069
C	403.871	206.327	744.387
C	419.206	230.555	757.548
C	441.272	252.812	754.291
C	463.678	267.597	732.76
C	480.945	280.613	709.779
C	494.128	305.122	695.412
C	497.397	337.291	689.059
C	494.07	366.762	678.862
C	496.458	389.907	657.799
C	508.903	407.437	634.229
C	519.66	429.09	615.715
C	511.596	458.056	602.052
C	485.711	480.495	594.513
C	464.704	500.963	585.503
C	462.951	530.867	572.26
C	475.394	559.984	561.444
C	473.265	588.09	549.739
C	445.09	606.535	536.79
C	411.91	609.341	526.601
C	389.892	622.544	509.802
C	385.031	648.51	487.869
C	382.997	672.712	468.164
C	360.514	689.405	452.036
C	325.149	692.275	447.916
C	294.532	697.819	447.198
C	274.375	722.447	438.463
C	271.688	755.328	426.541
C	265.382	783.902	417.602
C	240.544	803.623	410.039
C	208.779	809.226	400.266
C	183.48	816.712	384.148
C	167.299	839.779	368.518
C	158.859	872.809	367.504
C	148.262	901.49	379.431
C	127.627	923.831	386.359
C	103.088	942.713	375.095
C	89.0289	961.031	350.777
C	87.8729	987.101	331.436
C	91.8564	1020.53	329.592
C	89.791	1051.55	341.11
C	75.3548	1078.83	348.292
C	54.6985	1102.96	341.598
C	40.8817	1127.74	328.12
C	40.5162	1159.4	322.808
C	50.8017	1190.44	331.538
C	60.4432	1218.18	342.022
C	65.6532	1248.66	339.945
C	70.7291	1276.85	324.926
C	81.4179	1302.38	311.282
C	95.9957	1330.04	309.732
C	107.665	1358.49	316.449
C	118.293	1386.93	318.059
C	136.886	1410.86	308.79
C	165.276	1422.79	296.424
C	196.337	1429.01	292.439
C	223.363	1444.11	298.288
C	241.436	1469.49	307.255
C	258.78	1494.51	311.319
C	288.282	1507.09	306.962
C	320.872	1498.03	294.758
C	346.068	1482.8	280.19
C	373.552	1481.44	266.527
C	402.877	1495.5	260.859
C	432.104	1507.04	265.257
C	463.349	1498.23	270.233
C	486.563	1472.57	264.951
C	505.941	1452.64	248.654
C	533.571	1449.65	232.064
C	565.425	1455.9	227.038
C	596.208	1449.4	230.198
C	617.162	1421.95	229.289
C	623.762	1390.13	217.188
C	634.197	1367.92	197.215
C	658.079	1356.14	178.687
C	687.734	1347.53	169.845
C	712.585	1328.14	168.252
C	723.184	1296.18	168.349
C	719.691	1263.09	163.997
C	715.424	1234.74	150.438
C	719.99	1211.63	129.028
C	734.75	1192.01	108.796
C	754.549	1169.59	98.539
C	771.427	1142.68	97.968
C	780.871	1113.52	94.1029
C	782.71	1087.37	74.7772
C	779.245	1070.6	46.2552
C	776.928	1051.11	22.957
C	777.527	1019.55	14.5205
C	777.167	986.669	20.2049
C	771.248	956.645	19.1449
C	761.97	932.162	-1.12468
C	758.219	918.382	-31.7549
C	762.818	901.95	-57.8267
C	768.635	873.46	-71.6796
C	764.225	840.537	-73.3841
C	745.283	814.148	-77.5341
C	721.59	800.001	-97.0058
C	710.301	794.948	-129.067
C	715.921	784.787	-160.385
C	725.807	760.18	-180.464
C	723.012	726.949	-187.249
C	701.799	700.09	-189.746
C	673.292	686.346	-200.651
C	652.378	678.526	-224.646
C	646.092	667.449	-255.131
C	648.796	649.653	-281.96
C	647.966	627.165	-303.33
C	636.737	605.534	-322.792
C	616.807	591.484	-343.291
C	594.711	588.079	-366.331
C	575.866	592.38	-391.513
C	561.524	596.508	-418.548
C	551.254	591.332	-447.473
C	546.627	572.779	-474.004
C	545.819	547.962	-494.581
C	539.431	527.765	-516.529
C	521.259	524	-544.297
C	499.77	543.036	-566.842
C	485.449	567.833	-583.394
C	474.043	582.62	-607.826
C	463.101	581.155	-638.91
C	452.265	572.137	-667.577
C	440.209	572.055	-695.557
C	429.049	585.191	-722.354
C	418.962	602.815	-746.169
C	406.672	617.21	-770.048
C	394.31	630.56	-794.445
C	388.676	649.856	-817.947
C	394.761	673.975	-838.464
C	407.28	695.446	-857.864
C	412.971	716.065	-879.528
C	407.285	740.664	-898.441
C	397.23	769.862	-907.235
C	393.389	800.841	-910.123
C	398.959	830.416	-918.262
C	410.182	855.334	-934.415
C	421.929	879.081	-949.943
C	431.559	908.665	-953.654
C	436.092	939.338	-940.507
C	437.009	964.815	-920.376
C	442.304	991.007	-905.72
C	457.766	1018.77	-901.898
C	480.744	1041.47	-905.18
C	504.705	1060.74	-902.02
C	523.112	1079.23	-882.68
C	529.924	1092.26	-851.914
C	532.451	1100.96	-821.408
C	541.536	1111.31	-794.187
C	557.988	1123.84	-770.972
C	576.42	1134.96	-749.027
C	593.771	1140.64	-724.338
C	610.878	1139.16	-698.394
C	629.117	1133.42	-674.07
C	646.153	1128.13	-649.311
C	655.657	1124.6	-620.011
C	654.133	1119.63	-588.486
C	650.285	1107.9	-559.758
C	658.034	1087.28	-536.473
C	678.557	1064.47	-522.998
C	697.655	1043.62	-510.594
C	701.398	1022.25	-487.014
C	686.667	1007.54	-459.08
C	672.807	997.165	-432.96
C	676.151	981.048	-405.889
C	695.828	959.737	-387.574
C	714.25	934.359	-379.403
C	719.55	903.952	-371.848
C	712.024	875.101	-359.005
C	701.151	852.979	-338.682
C	693.514	835.067	-314.343
C	687.629	813.581	-293.579
C	681.169	783.431	-284.987
C	678.281	750.694	-291.292
C	684.433	720.378	-298.515
C	698.716	692.591	-289.531
C	710.389	673.989	-262.831
C	710.412	657.547	-235.134
C	702.503	628.399	-222.34
C	695.473	594.75	-233.257
C	693.776	566.571	-249.258
C	690.831	535.695	-249.021
C	683.837	508.702	-229.23
C	678.708	490.858	-201.674
C	683.711	468.521	-180.588
C	700.829	439.251	-176.048
C	718.863	412.416	-186.286
C	728.087	383.852	-193.67
C	727.74	352.078	-190.759
C	725.816	321.863	-183.658
C	733.762	292.206	-181.599
C	752.674	266.447	-183.26
C	772.773	243.376	-178.05
C	783.577	218.495	-161.145
C	783.782	192.885	-141.839
C	787.661	164.723	-130.459
C	808.115	138.628	-130.028
C	840.01	126.299	-137.325
C	870.107	119.058	-143.795
C	894.109	99.7231	-146.203
C	907.171	69.4991	-142.904
C	917.652	41.3013	-133.725
C	940.898	23.2044	-121.813
C	974.216	20.4358	-114.968
C	1006.41	23.3493	-115.588
C	1036.69	20.0164	-114.825
C	1064.94	12.6446	-103.916
C	1089.41	11.3874	-83.4236
C	1112.45	21.4258	-63.9117
C	1138.85	37.2475	-55.5048
C	1168.77	49.056	-59.9633
C	1198.91	52.9616	-69.7066
C	1228.9	55.3895	-75.3482
C	1258	66.295	-72.1624
C	1278.29	90.4375	-60.4452
C	1283.78	121.374	-46.8786
C	1285.03	151.768	-38.1919
C	1296.99	180.434	-36.6687
C	1322.56	200.977	-42.9671
C	1350.52	214.1	-51.7992
C	1371.15	236.427	-55.7206
C	1374.11	270.558	-50.3266
C	1361.7	301.296	-40.7022
C	1355.33	331.075	-38.1245
C	1362.81	361.371	-47.9055
C	1373.31	387.001	-63.8639
C	1370.13	416.276	-73.8348
C	1352.01	444.931	-70.6468
C	1335.54	470.555	-62.7164
C	1331.96	501.697	-64.7694
C	1338.23	530.655	-80.1641
C	1336.83	555.349	-99.3079
C	1317.28	579.437	-110.29
C	1289.51	599.034	-105.557
C	1269.06	620.305	-93.4909
C	1258.39	649.276	-87.2814
C	1250.82	679.56	-96.0068
C	1236.61	699.853	-118.806
C	1215.43	706.839	-143.841
C	1193.14	715.412	-163.268
C	1175.27	738.045	-176.495
C	1164.31	768.526	-181.567
C	1148.95	795.42	-182.452
C	1120.97	811.695	-182.667
C	1088.37	815.782	-184.994
C	1059.05	819.272	-195.318
C	1037.57	829.036	-217.664
C	1027	841.667	-246.235
C	1017.07	854.333	-272.517
C	997.452	869.544	-291.298
C	970.648	887.286	-297.668
C	943.968	904.257	-297.965
C	917.339	916.921	-306.231
C	893.132	918.444	-328.825
C	878.366	907.254	-357.742
C	866.45	895.104	-384.049
C	845.449	893.506	-406.871
C	817.259	906.307	-420.349
C	790.947	923.487	-427.312
C	766.724	932.198	-444.029
C	751.771	924.456	-474.438
C	751.685	906.181	-504.46
C	749.394	892.161	-531.705
C	731.798	888.343	-558.264
C	702.6	893.691	-575.088
C	672.896	896.519	-585.636
C	647.742	888.063	-601.975
C	634.305	869.969	-626.432
C	632.83	852.239	-654.164
C	632.423	840.939	-683.203
C	624.764	835.662	-712.794
C	609.543	832.98	-740.007
C	593.075	826.492	-765.098
C	583.506	809.638	-789.858
C	586.499	782.349	-809.205
C	596.543	752.851	-819.864
C	600.71	725.138	-831.982
C	591.851	703.813	-854.719
C	574.828	697.654	-883.986
C	562.261	698.442	-913.395
C	559.211	690.025	-943.196
C	565.343	666.627	-966.46
C	575.183	635.661	-976.48
C	584.154	605.615	-981.059
C	594.083	578.459	-990.785
C	607.621	557.014	-1009.32
C	624.018	543.139	-1032.81
C	640.808	530.632	-1055.37
C	655.366	510.13	-1073.14
C	663.198	479.511	-1081.46
C	663.078	446.434	-1079.58
C	662.852	415.598	-1075.87
C	672.674	386.385	-1079.41
C	695.837	366.115	-1093.55
C	723.477	359.281	-1111.96
C	749.087	351.21	-1126.95
C	770.63	328.323	-1133.07
C	780.021	295.434	-1124.97
C	781.863	266.252	-1109.35
C	793.378	240.914	-1096.44
C	820.785	222.473	-1092.32
C	853.308	214.839	-1096.57
C	882.029	204.677	-1098.95
C	902.765	180.811	-1093.42
C	910.636	149.751	-1083.8
C	919.603	120.965	-1078.18
C	942.732	99.0822	-1078.5
C	973.02	87.2603	-1079.11
C	998.943	73.1047	-1069.84
C	1012.77	51.8842	-1048.31
C	1018.95	33.2416	-1022.71
C	1036.09	22.2835	-999.273
C	1066.24	17.7984	-986.107
C	1096.56	6.7786	-984.286
C	1114.59	-21.7077	-984.677
C	1114.86	-55.9315	-978.704
C	1116.56	-82.2316	-960.467
C	1135.04	-95.2405	-935.047
C	1163.05	-97.6531	-916.31
C	1187.07	-108.941	-901.167
C	1197.17	-132.745	-881.04
C	1193.64	-153.49	-855.377
C	1195.05	-162.222	-824.976
C	1213.19	-163.925	-797.569
C	1241.82	-171.258	-782.221
C	1264.6	-194.358	-774.857
C	1267.87	-227.803	-765.996
C	1254.66	-254.468	-748.193
C	1244.46	-268.117	-719.781
C	1249.86	-275.027	-687.926
C	1265.3	-284.06	-661.273
C	1276.34	-298.725	-636.763
C	1278.06	-313.527	-609.631
C	1278.65	-324.94	-581.21
C	1286.81	-338.697	-555.074
C	1297.98	-358.661	-533.947
C	1299.96	-380.036	-511.764
C	1286.24	-391.743	-483.775
C	1263.98	-388.927	-457.857
C	1243.75	-387.219	-434.557
C	1229.01	-401.211	-410.275
C	1225.14	-428.006	-390.061
C	1229.81	-452.763	-370.369
C	1236.23	-466.411	-342.478
C	1238.2	-467.125	-309.794
C	1229.45	-464.932	-279.085
C	1206.75	-470.622	-255.59
C	1176.63	-483.79	-245.775
C	1148.35	-496.847	-240.532
C	1123.78	-506.483	-224.803
C	1108.29	-512.327	-196.515
C	1102.7	-516.264	-164.681
C	1097.89	-520.405	-134.513
C	1086.11	-523.866	-106.461
C	1064.07	-525.207	-83.6514
C	1033.55	-524.369	-71.4204
C	1001.2	-521.567	-69.3864
C	971.133	-516.469	-65.7414
C	946.337	-510.975	-46.5388
C	935.836	-511.421	-13.3124
C	932.26	-518.751	18.1752
C	914.177	-523.255	42.9543
C	882.068	-515.284	54.0884
C	852.784	-500.369	56.8713
C	826.758	-493.549	71.5841
C	807.361	-501.089	98.1307
C	793.921	-509.444	125.542
C	777.544	-498.61	150.952
C	764.061	-468.011	164.029
C	752.83	-438.056	169.118
C	731.892	-419.843	183.656
C	705.823	-422.067	207.26
C	686.86	-434.331	231.828
C	674.05	-435.354	260.193
C	668.988	-417.585	288.64
C	670.54	-390.001	308.249
C	668.826	-364.171	325.195
C	657.541	-344.05	346.053
C	638.744	-331.6	368.66
C	619.975	-321.545	391.012
C	607.581	-305.709	414.16
C	606.336	-281.708	435.622
C	615.653	-254.368	451.173
C	627.514	-228.38	463.847
C	632.764	-203.918	481.328
C	625.137	-182.203	503.648
C	608.48	-161.464	521.407
C	596.852	-133.158	528.939
C	601.687	-100.307	530.211
C	615.16	-72.918	540.183
C	616.381	-52.5525	566.26
C	599.868	-37.3626	591.622
C	585.589	-10.7254	602.081
C	595.428	24.4338	595.954
C	623.462	45.8323	585.771
C	643.571	69.0107	587.032
C	642.234	101.944	596.232
C	624.421	130.632	603.339
C	616.13	159.516	607.897
C	629.838	188.859	616.716
C	656.016	207.03	629.916
C	675.746	225.865	643.855
C	681.312	256.716	652.13
C	672.765	290.022	647.205
C	664.071	318.035	632.933
C	665.778	344.727	616.61
C	678.868	370.273	602.678
C	697.94	393.562	593.006
C	717.007	417.135	587.281
C	731.915	444.104	585.83
C	739.853	474.294	588.03
C	743.284	505.004	589.143
C	751.214	534.062	582.973
C	770.122	556.342	568.926
C	794.954	570.532	554.068
C	815.625	589.171	541.817
C	822.644	618.044	529.053
C	815.268	645.985	512.55
C	811.11	666.199	488.906
C	826.374	680.179	463.035
C	858.448	689.116	450.858
C	889.051	701.885	452.445
C	909.272	725.965	448.891
C	914.766	752.226	426.949
C	910.289	762.267	392.763
C	913.498	760.814	360.297
C	930.547	766.793	334.102
C	951.344	786.574	317.503
C	966.497	809.238	302.35
C	981.649	820.041	277.323
C	1000.19	812.312	250.097
C	1020.52	801.749	228.447
C	1039.57	807.833	204.388
C	1047.41	830.142	179.714
C	1047.98	850.163	155.17
C	1056.24	854.685	124.815
C	1073.62	839.599	98.2329
C	1090.28	817.417	80.1276
C	1101.79	800.446	57.486
C	1108.9	793.711	27.3302
C	1117.44	795.439	-3.03229
C	1134.48	796.102	-28.9865
C	1157.56	787.107	-48.9754
C	1175.07	765.772	-65.875
C	1176.61	738.119	-84.517
C	1164.38	715.622	-105.883
C	1154.46	700.415	-131.316
C	1160.79	686.293	-159.266
C	1184.21	670.028	-178.135
C	1209	648.006	-182.648
C	1219.99	616.924	-181.71
C	1212	583.771	-184.435
C	1195.85	557.015	-194.998
C	1186.98	531.843	-210.695
C	1191.25	503.386	-223.881
C	1203.13	473.591	-227.239
C	1210.07	443.277	-222.57
C	1204.16	412.504	-217.516
C	1187.49	384.855	-217.057
C	1169.75	359.48	-218.85
C	1158.79	331.009	-216.304
C	1157.39	300.88	-205.984
C	1159.43	273.531	-190.55
C	1153.43	248.373	-173.757
C	1133.55	228.082	-158.166
C	1105.99	216.615	-144.75
C	1080.76	207.813	-129.137
C	1063.54	192.874	-108.032
C	1057.7	170.129	-85.5957
C	1059.01	144.168	-66.9372
C	1057.9	118.853	-49.7716
C	1047.33	97.7296	-29.6322
C	1025.38	87.2995	-7.36171
C	997.833	90.0349	11.6913
C	971.934	97.0323	28.3219
C	950.915	96.4766	50.7
C	941.847	82.4933	79.7632
C	945.113	61.5737	105.982
C	941.855	43.8443	130.529
C	917.538	37.6856	153.365
C	883.727	48.5958	162.758
C	856.79	60.9055	172.935
C	839.164	60.2526	200.76
C	836.244	45.592	232.812
C	826.627	33.986	259.284
C	798.956	39.8482	278.696
C	772.112	59.0236	288.292
C	754.687	69.2014	311.913
C	750.042	58.2436	346
C	746.651	40.8879	373.112
C	727.357	40.3225	398.767
C	702.97	58.5564	416.243
C	682.828	72.3728	434.661
C	662.102	65.559	459.119
C	641.432	44.1696	475.436
C	615.622	30.7693	486.215
C	588.906	35.6011	504.338
C	576.996	51.3146	532.921
C	578.802	59.9188	565.166
C	573.723	56.3602	595.969
C	548.31	47.9495	617.097
C	513.083	43.4893	620.037
C	482.114	40.8579	622.358
C	458.187	30.9044	640.976
C	449.621	15.1076	670.652
C	446.433	2.38811	699.632
C	434.293	-4.83748	726.91
C	413.4	-10.914	749.53
C	389.281	-24.0535	765.114
C	365.727	-44.0215	773.182
C	342.441	-62.2671	781.099
C	321.19	-74.012	800.873
C	313.022	-81.7142	832.6
C	319.045	-95.5784	862.262
C	322.279	-122.653	880.29
C	308.424	-153.878	885.093
C	280.791	-174.259	884.913
C	252.685	-187.071	892.277
C	233.026	-203.971	910.242
C	228.787	-228.226	932.864
C	238.849	-254.301	951.716
C	252.052	-279.063	966.245
C	257.993	-306.011	979.462
C	250.73	-336.274	987.689
C	234.394	-364.942	985.541
C	221.725	-392.667	979.677
C	219.845	-423.569	985.538
C	225.857	-447.587	1009.71
C	230.306	-462.991	1037.95
C	232.938	-487.969	1055.62
C	237.753	-520.985	1056.99
C	247.855	-550.884	1053.56
C	261.232	-578.045	1059.04
C	274.088	-604.335	1068.14
C	288.578	-631.41	1068.64
C	309.143	-654.202	1060.67
C	336.332	-670.096	1058.88
C	362.492	-683.385	1073.01
C	378.596	-701.528	1094.4
C	387.269	-729.98	1106.67
C	396.05	-761.64	1102.4
C	414.054	-785.764	1089.93
C	444.548	-797.195	1082.27
C	478.35	-796.13	1084.02
C	509.204	-794.615	1088.09
C	538.671	-803.634	1087.72
C	563.696	-823.302	1084.93
C	586.408	-844.261	1087.41
C	613.547	-855.954	1098.05
C	644.533	-851.706	1108.66
C	674.486	-836.912	1106.6
C	700.63	-825.483	1089.72
C	725.538	-826.109	1069.48
C	754.542	-835.404	1060.03
C	786.229	-841.39	1067.83
C	814.146	-832.325	1084.45
C	835.913	-808.149	1093.25
C	853.888	-780.857	1086.01
C	874.246	-762.025	1069.42
C	901.086	-752.52	1055.64
C	931.335	-745.372	1051.03
C	959.275	-731.596	1053.06
C	980.107	-707.608	1056.28
C	991.781	-677.58	1058.24
C	998.501	-647.001	1059.31
C	1006.9	-617.664	1058.37
C	1020.59	-590.768	1051.73
C	1037	-567.719	1038.2
C	1051.25	-543.827	1025.73
C	1059.39	-512.979	1026.41
C	1056.38	-481.976	1039.15
C	1050.75	-453.024	1048.65
C	1054.28	-421.893	1044.78
C	1065.59	-394.368	1031.64
C	1070.53	-365.541	1023.33
C	1058.18	-334.629	1027.55
C	1035.42	-312.017	1038.22
C	1018.23	-287.048	1041.23
C	1015.17	-255.488	1031.62
C	1022.42	-227.064	1016.52
C	1022.36	-198.64	1005.67
C	1004.86	-170.775	1003.25
C	974.872	-154.106	1008.89
C	944.105	-146.255	1016.05
C	915.588	-136.266	1020.68
C	890.494	-118.11	1020.87
C	871.893	-92.9203	1013.91
C	859.097	-67.7887	998.524
C	844.721	-48.9212	978.055
C	820.981	-37.3371	960.869
C	788.964	-30.383	957.077
C	758.183	-23.3527	966.392
C	730.154	-13.5455	974.213
C	700.658	-5.00607	968.34
C	673.813	-6.99361	948.392
C	651.798	-19.0639	927.67
C	622.727	-24.8989	918.741
C	590.062	-18.9749	924.112
C	560.302	-14.7437	932.485
C	531.05	-28.7136	929.654
C	514.206	-55.615	913.145
C	500.635	-75.8877	892.913
C	474.356	-84.196	877.035
C	442.781	-85.6828	869.922
C	414.987	-95.5163	862.013
C	396.895	-116.166	844.545
C	389.744	-136.522	819.69
C	385.258	-152.501	793.159
C	381.373	-171.411	769.445
C	381.496	-198.485	753.182
C	383.168	-228.993	744.722
C	377.035	-257.459	734.876
C	361.571	-279.559	717.93
C	349.985	-297.429	695.134
C	357.287	-317.98	670.613
C	381.436	-335.869	653.486
C	402.124	-352.571	637.869
C	408.334	-373.357	614.879
C	405.131	-393.347	590.193
C	412.486	-410.38	565.891
C	436.815	-420.189	545.346
C	465.718	-424.133	531.087
C	491.235	-433.674	517.279
C	513.861	-450.666	504.709
C	537.97	-465.673	493.667
C	564.389	-469.274	477.148
C	583.13	-462.636	450.718
C	589.79	-457.967	419.037
C	596.977	-462.347	389.171
C	619.866	-471.69	368.18
C	654.443	-473.426	363.434
C	685.551	-462.293	363.278
C	708.814	-446.617	347.599
C	718.721	-439.187	314.707
C	719.12	-442.588	281.057
C	727.198	-441.398	251.779
C	746.991	-424.993	230.601
C	768.008	-400.716	220.985
C	785.015	-381.263	204.952
C	795.17	-373.956	174.273
C	794.992	-376.371	140.761
C	791.477	-370.753	110.485
C	790.758	-348.309	86.6162
C	795.222	-317.997	73.4736
C	804.049	-291.464	60.1744
C	815.26	-273.3	37.2048
C	825.174	-264.424	8.00489
C	831.167	-255.075	-20.6867
C	829.346	-235.515	-45.3556
C	817.171	-208.339	-60.4188
C	806.357	-179.256	-67.7726
C	811.416	-149.875	-78.8423
C	837.383	-132.137	-96.064
C	866.772	-130.987	-114.623
C	884.505	-123.97	-139.12
C	882.43	-101.503	-165.961
C	867.059	-74.8567	-182.371
C	862.672	-48.6425	-197.654
C	878.333	-24.7272	-214.699
C	903.811	-7.5109	-227.221
C	924.73	10.4318	-240.372
C	938.1	29.6137	-260.735
C	949.108	44.248	-285.911
C	967.405	56.4821	-307.351
C	994.476	72.5316	-315.442
C	1020.42	92.5122	-309.318
C	1041.08	115.033	-303.385
C	1059.45	139.542	-308.64
C	1075.96	162.336	-322.982
C	1095.04	182.402	-336.073
C	1122.01	198.198	-340.088
C	1154.01	204.073	-333.64
C	1184.46	201.31	-322.717
C	1213.34	199.596	-312.452
C	1241.78	205.926	-302.676
C	1267.85	218.546	-291.412
C	1292.67	228.329	-276.304
C	1317.75	226.595	-257.25
C	1340.28	212.819	-238.396
C	1360.67	195.926	-221.779
C	1382.72	183.426	-204.879
C	1405.57	175.978	-185.771
C	1424.78	167.857	-163.276
C	1435.7	152.582	-137.927
C	1436.26	129.798	-114.656
C	1431.96	103.702	-96.8565
C	1430.08	76.8815	-81.8577
C	1431.36	51.2595	-65.3446
C	1429.4	29.3259	-43.908
C	1416.64	13.8119	-18.9949
C	1393.7	3.73061	1.73325
C	1369.15	-10.7887	14.7796
C	1351.73	-36.6073	22.2368
C	1343.64	-67.2655	27.5528
C	1333.09	-94.805	35.2129
C	1310.23	-115.047	43.582
C	1279.52	-125.87	46.7752
C	1249.04	-133.463	44.6541
C	1219.7	-141.775	41.9447
C	1190	-148.482	40.1739
C	1160.29	-153.656	35.042
C	1133.77	-163.527	21.8968
C	1114.06	-181.383	4.11793
C	1094.53	-200.51	-9.85756
C	1063.99	-208.471	-15.349
C	1030.92	-196.237	-11.53
C	1004.73	-177.032	-8.34962
C	975.713	-169.329	-16.6844
C	949.926	-180.622	-37.5927
C	935.367	-198.663	-62.166
C	919.067	-205.434	-87.428
C	895.359	-195.495	-108.185
C	868.547	-179.109	-118.111
C	839.614	-170.751	-125.359
C	811.765	-170.878	-139.206
C	790.405	-167.451	-161.957
C	777.491	-151.081	-187.038
C	767.502	-128.875	-207.305
C	749.488	-115.775	-228.39
C	726.506	-122.779	-252.366
C	710.05	-140.85	-274.895
C	694.922	-147.429	-300.615
C	675.251	-132.242	-323.772
C	654.434	-106.828	-333.692
C	631.111	-89.854	-344.148
C	609.74	-88.2944	-369.297
C	604.71	-100.378	-402.791
C	611.983	-111.207	-433.45
C	614.368	-113.345	-464.031
C	601.83	-108.531	-493.42
C	576.031	-102.037	-513.976
C	547.595	-97.5778	-527.897
C	523.535	-93.2042	-546.064
C	509.62	-86.5205	-573.915
C	510.259	-79.761	-606.571
C	518.552	-78.1128	-637.722
C	521.414	-84.5646	-668.076
C	509.239	-97.3362	-695.597
C	482.923	-108.748	-713.782
C	453.728	-114.287	-726.155
C	429.778	-119.371	-744.37
C	417.525	-129.822	-772.359
C	419.744	-143.056	-803.015
C	426.253	-151.331	-832.822
C	426.338	-150.37	-864.071
C	416.415	-143.546	-893.669
C	398.765	-141.788	-919.805
C	377.845	-153.195	-941.751
C	358.707	-175.085	-956.948
C	342.274	-198.541	-969.487
C	327.67	-219.015	-986.84
C	317.893	-235.439	-1011.62
C	315.11	-248.813	-1040.1
C	313.728	-262.682	-1067.45
C	303.071	-279.919	-1090.8
C	278.176	-297.756	-1103.93
C	248.138	-312.384	-1104.91
C	223.291	-330.613	-1105.83
C	210.693	-358.306	-1117.47
C	214.777	-385.303	-1138.98
C	219.277	-405.132	-1163.36
C	205.652	-423.343	-1185.69
C	174.527	-438.704	-1192.89
C	145.656	-454.456	-1182.46
C	129.81	-480.23	-1170.42
C	125.075	-513.129	-1171.52
C	120.426	-541.046	-1189.27
C	106.34	-559.735	-1211.84
C	84.5695	-578.565	-1224.41
C	64.8654	-604.794	-1219.44
C	54.5899	-632.07	-1202.69
C	43.5599	-657.793	-1190.44
C	22.2309	-681.615	-1192.13
C	-2.71037	-699.068	-1204.34
C	-24.8068	-719.13	-1210.03
C	-39.9608	-745.418	-1195.66
C	-43.9958	-765.199	-1166.86
C	-51.2325	-781.9	-1142
C	-71.9272	-804.955	-1131.93
C	-97.5505	-826.891	-1140.15
C	-121.076	-845.904	-1146.67
C	-142.857	-866.173	-1135.38
C	-154.466	-884.916	-1109.49
C	-155.539	-905.433	-1084.49
C	-155.311	-931.406	-1067.2
C	-164.975	-957.692	-1053.85
C	-190.598	-973.432	-1039.45
C	-221.741	-973.544	-1025.48
C	-246.691	-976.052	-1007.76
C	-257.13	-996.276	-982.749
C	-245.938	-1024.16	-961.872
C	-235.777	-1046.18	-942.283
C	-246.792	-1061.69	-915.604
C	-275.443	-1066.63	-895.142
C	-300.137	-1076.61	-879.469
C	-306.343	-1102.51	-858.943
C	-292.121	-1128.67	-839.723
C	-285.368	-1146.69	-815.709
C	-301.604	-1156.64	-787.19
C	-326.159	-1161.29	-765.477
C	-334.317	-1176.69	-739.615
C	-317.462	-1198.2	-715.856
C	-298.634	-1215.94	-697.149
C	-300.493	-1234.66	-671.294
C	-321.497	-1249.41	-647.923
C	-339.237	-1262.95	-626.613
C	-341.137	-1278.76	-599.182
C	-324.716	-1291.73	-572.18
C	-300.257	-1301.35	-552.253
C	-281.937	-1313.79	-531.351
C	-278.036	-1332.35	-505.411
C	-287.686	-1351.77	-480.495
C	-293.314	-1368.7	-455.74
C	-278.801	-1381.97	-429.529
C	-248.52	-1387.61	-412.748
C	-221.797	-1394.72	-398.759
C	-209.163	-1410.9	-374.034
C	-213.641	-1427.57	-344.59
C	-215.315	-1438.06	-315.597
C	-196.503	-1444.96	-289.712
C	-162.31	-1450.17	-280.416
C	-130.704	-1459.36	-281.706
C	-105.996	-1476.48	-273.752
C	-92.2741	-1495.86	-250.068
C	-86.7052	-1508.17	-219.968
C	-72.6653	-1514.17	-192.999
C	-43.0208	-1515.46	-177.514
C	-8.8682	-1512.3	-177.394
C	21.9505	-1508.37	-177.54
C	50.3644	-1507.48	-165.076
C	72.5901	-1513.12	-142.004
C	91.715	-1525.9	-120.432
C	116.614	-1542.37	-110.205
C	147.603	-1553.48	-115.152
C	178.804	-1550.59	-126.855
C	207.45	-1534.62	-130.346
C	231.463	-1514.84	-118.3
C	252.29	-1502.03	-96.9598
C	277.541	-1499.06	-78.566
C	309.193	-1503.76	-72.4024
C	340.553	-1511.46	-79.3647
C	369.64	-1516.14	-89.944
C	399.827	-1512.63	-95.618
C	428.431	-1497.49	-92.9786
C	450.423	-1474.85	-84.5914
C	471.087	-1453.31	-77.1099
C	498.044	-1438.17	-76.3759
C	527.918	-1430.58	-85.9125
C	553.783	-1422.26	-101.703
C	575.717	-1402.6	-112.129
C	593.823	-1375.12	-105.607
C	609.826	-1353.89	-85.1983
C	631.152	-1338.87	-68.4985
C	656.729	-1319.54	-68.5022
C	673.454	-1294.21	-83.8566
C	681.371	-1266.27	-96.8138
C	695.561	-1238.46	-96.4068
C	720.018	-1219.11	-85.043
C	745.947	-1205.81	-72.7287
C	764.219	-1182.94	-63.1231
C	764.106	-1149.24	-56.3925
C	748.785	-1118.61	-53.5501
C	738.981	-1089.56	-52.4765
C	747.829	-1058.42	-51.7907
C	773.42	-1035.39	-49.3102
C	799.628	-1018.82	-41.0382
C	815.429	-996.806	-25.1094
C	813.769	-968.542	-6.8071
C	798.412	-940.793	4.94544
C	782.314	-914.147	10.2774
C	773.727	-885.318	16.0838
C	775.763	-856.134	28.1666
C	785.079	-832.146	47.6184
C	791.822	-813.298	71.7731
C	786.223	-794.953	96.8183
C	765.335	-776.977	115.473
C	738.405	-760.643	124.543
C	716.346	-741.215	133.284
C	705.67	-716.419	150.015
C	707.742	-692.972	173.155
C	710.776	-674.544	198.237
C	701.831	-659.416	224.01
C	679.271	-650.464	246.277
C	653.548	-648.569	265.304
C	634.325	-648.732	289.406
C	625.345	-645.648	319.636
C	620.399	-635.67	348.942
C	606.287	-619.643	371.956
C	578.644	-606.189	384.498
C	545.985	-606.297	391.126
C	519.544	-622.119	404.112
C	507.51	-644.5	427.038
C	502.78	-659.785	455.126
C	489.681	-663.244	483.702
C	464.668	-658.053	504.696
C	435.418	-656.789	517.344
C	410.362	-671.883	530.713
C	400.917	-701.858	546.115
C	404.659	-731.286	561.706
C	402.476	-754.82	581.164
C	384.104	-772.025	601.583
C	354.918	-784.052	612.356
C	327.622	-801.073	611.622
C	310.378	-828.007	607.163
C	302.509	-858.998	609.856
C	295.764	-886.399	624.926
C	286.116	-907.83	646.133
C	276.034	-931.639	662.19
C	270.734	-963.681	663.455
C	271.212	-994.232	647.543
C	268.346	-1018.34	626.415
C	255.111	-1042.09	611.018
C	236.687	-1067.62	606.274
C	224.645	-1096.61	608.496
C	224.573	-1128.43	609.968
C	232.094	-1158.98	605.706
C	239.722	-1187.23	594.892
C	245.976	-1213.23	579.158
C	253.186	-1237.03	560.952
C	260.464	-1260.07	542.216
C	262.676	-1284.23	523.498
C	257.056	-1308.39	504.655
C	248.279	-1330.28	484.715
C	243.52	-1350.82	462.58
C	245.634	-1372.03	440.252
C	253.863	-1394.82	420.722
C	268.453	-1416.82	403.923
C	290.198	-1431.8	386.402
C	313.722	-1434.23	364.127
C	327.317	-1428.1	334.886
C	323.963	-1427.15	301.592
C	311.268	-1442.26	273.753
C	308.111	-1470.01	255.115
C	324.866	-1495.1	239.762
C	352.475	-1502.53	220.461
C	371.309	-1492.91	193.207
C	372.46	-1480.68	161.504
C	367.307	-1477.39	130.212
C	373.658	-1481.13	99.9586
C	396.711	-1483.04	76.2225
C	423.952	-1477.73	59.59
C	442.658	-1469.01	36.7898
C	448.025	-1462.99	5.29402
C	447.748	-1458.33	-25.8309
C	455.747	-1444.91	-52.5624
C	471.094	-1420.63	-69.1016
C	482.302	-1393.97	-81.4167
C	484.702	-1372.41	-103.883
C	483.942	-1363.28	-135.407
C	491.155	-1360.62	-166.132
C	508.351	-1350.03	-190.464
C	524.546	-1325.13	-205.006
C	528.604	-1292.6	-211.992
C	524.416	-1262.2	-220.08
C	523.742	-1235.72	-235.656
C	530.614	-1212.89	-255.86
C	538.633	-1188.66	-272.659
C	539.019	-1157.31	-278.279
C	530.094	-1125.92	-268.116
C	520.662	-1100.03	-251.108
C	518.742	-1071.56	-240.019
C	525.989	-1039.93	-241.916
C	536.724	-1011.45	-252.857
C	542.701	-982.403	-259.871
C	537.545	-950.982	-254.261
C	519.445	-926.601	-238.279
C	495.279	-910.2	-223.832
C	472.734	-890.843	-216.07
C	459.499	-863.068	-210.036
C	460.554	-833.134	-196.396
C	468.73	-812.652	-171.242
C	467.953	-801.935	-140.637
C	450.075	-790.6	-115.567
C	424.321	-772.197	-104.435
C	405.95	-747.505	-97.3434
C	398.338	-723.964	-77.4047
C	395.773	-714.672	-44.8849
C	385.164	-718.943	-13.7775
C	360.177	-720.621	7.29724
C	331.157	-708.903	18.3699
C	312.053	-686.94	32.0841
C	307.86	-668.179	59.4552
C	313.991	-665.67	93.6566
C	314.71	-673.73	125.045
C	300.01	-677.61	153.174
C	273.483	-671.971	173.041
C	245.686	-664.916	186.795
C	220.482	-667.059	204.32
C	201.311	-677.651	227.285
C	187.401	-683.215	254.551
C	176.495	-672.784	283.374
C	168.978	-653.246	308.103
C	159.411	-642.746	335.025
C	144.687	-652.244	363.608
C	126.503	-673.236	382.921
C	101.69	-685.091	398.009
C	72.9002	-678.078	413.251
C	50.7079	-660.084	429.653
C	35.5507	-648.993	454.866
C	28.4935	-654.091	487.501
C	26.6265	-668.045	517.064
C	16.2738	-674.594	545.046
C	-9.27354	-666.267	566.165
C	-40.9136	-651.98	570.847
C	-72.3128	-648.205	572.451
C	-100.559	-658.58	584.692
C	-118.36	-671.96	609.609
C	-128.589	-671.718	641.128
C	-136.88	-653.808	668.668
C	-148.275	-630.581	687.937
C	-167.379	-615.456	707.066
C	-192.478	-614.79	727.906
C	-218.421	-623.445	745.225
C	-246.609	-628.22	757.07
C	-277.162	-621.46	762.948
C	-304.606	-605.091	765.965
C	-328.274	-587.158	775.002
C	-349.039	-574.563	795.474
C	-365.641	-569.295	822.495
C	-382.04	-563.596	847.745
C	-402.628	-547.761	865.272
C	-424.319	-522.102	868.063
C	-444.101	-497.212	858.445
C	-467.59	-479.256	848.489
C	-497.57	-468.717	848.556
C	-526.614	-463.166	863.375
C	-547.977	-455.929	886.761
C	-566.398	-441.503	907.179
C	-588.841	-419.745	914.367
C	-611.714	-396.916	903.115
C	-629.038	-376.912	883.802
C	-645.264	-354.471	870.926
C	-665.577	-330.577	869.631
C	-691.23	-312.639	872.615
C	-720.059	-302.069	865.378
C	-743.338	-295.016	843.117
C	-756.532	-284.684	815.339
C	-768.763	-265.119	794.275
C	-787.093	-238.902	787.333
C	-808.844	-215.981	786.276
C	-832.603	-199.296	775.627
C	-853.103	-192.286	750.4
C	-863.712	-193.865	718.499
C	-866.467	-192.752	686.906
C	-866.091	-180.425	657.829
C	-868.273	-160.381	633.519
C	-879.826	-145.278	609.032
C	-899.972	-146.802	582.588
C	-917.022	-161.535	558.207
C	-924.667	-171.26	529.691
C	-923.636	-165.306	497.25
C	-919.835	-148.726	469.243
C	-920.949	-135.203	441.831
C	-928.286	-133.251	411.24
C	-937.633	-145.357	382.139
C	-943.04	-166.71	358.1
C	-941.51	-190.249	337.005
C	-933.75	-209.677	313.997
C	-923.65	-219.146	285.545
C	-917.247	-216.337	253.778
C	-917.944	-208.434	222.923
C	-923.224	-207.903	192.453
C	-927.559	-223.512	164.257
C	-925.115	-253.157	146.758
C	-914.737	-284.638	140.682
C	-900.349	-311.903	135.167
C	-887.38	-335.819	120.705
C	-881.869	-355.302	95.7556
C	-883.929	-369.936	67.2691
C	-883.839	-385.528	41.0326
C	-872.198	-406.153	20.2699
C	-851.327	-428.853	9.24797
C	-833.618	-453.97	3.35578
C	-828.744	-484.695	-3.2898
C	-836.222	-515.901	-8.90932
C	-841.546	-545.994	-11.7777
C	-832.741	-576.052	-14.4053
C	-812.18	-600.539	-20.8172
C	-792.204	-621.721	-31.9699
C	-779.47	-647.713	-41.9673
C	-773.135	-678.988	-40.7584
C	-767.989	-707.561	-25.1984
C	-757.845	-730.635	-6.19285
C	-741.139	-755.475	2.15449
C	-725.418	-783.216	-6.95655
C	-719.917	-810.935	-23.3099
C	-722.553	-842.205	-27.7446
C	-724.337	-871.616	-9.88804
C	-714.594	-887.966	19.8914
C	-691.364	-898.106	41.641
C	-664.997	-914.446	50.3889
C	-649.601	-941.515	57.2816
C	-651.567	-970.973	73.4738
C	-658.8	-993.149	95.8451
C	-651.098	-1016.25	114.911
C	-627.357	-1039.93	121.02
C	-603.987	-1060.7	123.833
C	-591.273	-1080.82	145.633
C	-594.138	-1087.79	181.314
C	-595.607	-1087.07	213.344
C	-580.016	-1096.64	239.594
C	-555.146	-1117.93	251.49
C	-536.506	-1142.14	259.755
C	-526.329	-1162.32	281.682
C	-523.405	-1169.19	314.766
C	-520.303	-1164.23	347.081
C	-508.797	-1158.96	375.561
C	-487.292	-1161.03	399.038
C	-461.484	-1171.47	415.562
C	-438.259	-1185.33	430.828
C	-421.492	-1196.64	454.239
C	-415.485	-1199.32	486.536
C	-417.232	-1191.66	518.648
C	-412.666	-1178.98	546.872
C	-391.509	-1167.72	569.154
C	-359.712	-1163.69	580.505
C	-330.492	-1163.81	591.347
C	-311.149	-1159.7	616.147
C	-311.071	-1147.77	649.366
C	-320.324	-1131.08	676.598
C	-315.514	-1112.55	700.903
C	-287.577	-1100.95	718.883
C	-251.874	-1103.94	723.604
C	-221.486	-1108.27	729.213
C	-196.222	-1099.79	746.377
C	-185.176	-1076.08	769.824
C	-186.486	-1048.46	789.27
C	-183.888	-1023.88	807.298
C	-168.05	-1005.18	827.173
C	-140.792	-996.269	843.937
C	-111.111	-990.666	854.148
C	-84.942	-975.257	860.528
C	-68.7692	-947.027	864.991
C	-60.7391	-916.548	870.357
C	-45.4234	-892.388	881.354
C	-19.7324	-879.906	897.291
C	5.20825	-870.726	913.421
C	22.3344	-848.288	926.887
C	31.6879	-817.169	931.504
C	49.1499	-791.171	926.685
C	80.2655	-781.307	915.438
C	110.933	-782.188	903.542
C	137.116	-768.703	894.792
C	151.906	-737.21	894.968
C	157.582	-705.459	902.961
C	172.987	-679.362	906.385
C	199.407	-661.875	896.327
C	224.97	-652.576	877.915
C	248.686	-638.811	864.818
C	271.451	-616.709	863.41
C	289.896	-591.526	864.822
C	305.789	-567.748	851.956
C	320.191	-555.151	824.125
C	340.314	-555.437	798.221
C	370.801	-557.749	786.271
C	402.026	-551.109	783.182
C	423.716	-531.109	769.648
C	426.149	-508.405	742.14
C	422.648	-495.397	712.289
C	437.499	-488.687	684.913
C	469.935	-487.804	670.877
C	501.254	-487.826	663.922
C	523.655	-483.809	642.67
C	530.793	-479.987	609.603
C	535.019	-483.181	578.508
C	552.018	-493.043	553.767
C	574.937	-500.805	533.878
C	588.534	-499.27	505.843
C	586.167	-492.688	473.192
C	584.005	-494.636	442.439
C	597.447	-511.509	416.913
C	617.647	-533.469	401.933
C	626.557	-549.976	377.649
C	616.577	-559.032	346.074
C	599.651	-570.494	321.244
C	592.063	-595.32	302.638
C	596.688	-623.26	286.995
C	602.317	-642.281	263.054
C	600.137	-650.959	232.064
C	591.908	-662.955	204.829
C	585.206	-691.955	190.187
C	584.323	-727.193	194.761
C	581.112	-757.747	202.017
C	564.02	-784.414	196.423
C	535.941	-797.028	179.293
C	508.884	-802.879	163.122
C	485.52	-820.385	153.286
C	470.415	-849.466	150.706
C	460.453	-879.512	151.385
C	445.613	-906.194	152.842
C	423.913	-927.817	159.449
C	400.422	-943.11	175.003
C	378.52	-953.278	195.447
C	354.224	-961.864	212.126
C	324.67	-970.507	218.606
C	294.148	-978.71	216.7
C	264.838	-987.144	217.59
C	237.529	-995.825	230.136
C	216.524	-1002.54	254.087
C	202.759	-1006.03	283.012
C	192.865	-1007.52	312.612
C	183.119	-1009.07	341.589
C	168.918	-1011.79	368.526
C	145.594	-1014.14	389.58
C	114.339	-1011.6	399.561
C	83.5124	-1000.69	400.925
C	58.3901	-982.665	406.784
C	41.7679	-964.237	428.245
C	36.7175	-956.34	461.65
C	34.4791	-959.297	494.182
C	21.3164	-961.215	522.147
C	-5.24122	-952.132	540.363
C	-32.2387	-931.212	545.078
C	-49.6557	-905.043	550.793
C	-57.1524	-880.946	571.334
C	-57.6754	-867.986	602.462
C	-63.7145	-860.594	632.228
C	-83.9213	-847.611	653.504
C	-111.368	-830.305	661.598
C	-135.392	-812.766	669.581
C	-151.073	-794.823	690.119
C	-153.827	-775.993	716.959
C	-150.967	-750.979	736.415
C	-155.367	-718.917	741.416
C	-174.041	-691.243	736.47
C	-202.552	-674.721	738.453
C	-227.681	-664.322	757.527
C	-238.153	-649.877	785.695
C	-238.879	-624.264	806.153
C	-245.604	-592.548	811.295
C	-268.349	-568.218	809.421
C	-300.486	-559.132	815.381
C	-327.389	-555.923	833.72
C	-345.11	-540.34	854.916
C	-354.357	-508.187	863.042
C	-359.48	-475.371	852.737
C	-373.983	-450.024	840.744
C	-402.98	-433.411	841.449
C	-434.983	-430.023	854.511
C	-464.091	-428.112	865.272
C	-492.641	-414.749	863.858
C	-512.402	-390.418	850.709
C	-525.601	-365.239	836.246
C	-547.499	-346.033	826.807
C	-579.915	-338.975	825.728
C	-611.759	-338.923	832.462
C	-640.282	-330.132	839.474
C	-666.097	-312.068	837.829
C	-692.659	-300.583	824.71
C	-721.776	-307.789	810.235
C	-750.209	-323.684	806.915
C	-780.413	-329.937	807.889
C	-809.99	-323.844	796.96
C	-832.511	-313.993	775.385
C	-855.778	-311.782	755.575
C	-885.67	-320.199	746.932
C	-914.176	-336.004	747.124
C	-937.39	-355.786	740.766
C	-953.357	-377.135	722.69
C	-965.949	-397.99	703.401
C	-985.564	-419.677	693.585
C	-1011.55	-438.364	693.611
C	-1037.09	-454.715	689.853
C	-1054.26	-474.249	670.833
C	-1052.76	-495.786	643.415
C	-1039.02	-518.877	623.38
C	-1029.31	-547.444	613.648
C	-1032.54	-579.253	609.669
C	-1045.08	-608.307	605.702
C	-1053.96	-636.586	598.62
C	-1048.79	-666.761	590.636
C	-1030.32	-693.412	585.098
C	-1010.41	-716.676	579.241
C	-997.456	-741.83	567.238
C	-991.391	-767.011	549.573
C	-981.812	-790.68	532.952
C	-959.033	-812.38	526.259
C	-929.388	-827.175	534.979
C	-904.108	-840.632	548.558
C	-882.894	-863.01	551.673
C	-865.514	-887.774	538.092
C	-844.463	-902.707	519.22
C	-811.909	-905.892	513.555
C	-780.041	-903.2	527.47
C	-753.336	-909.802	542.522
C	-726.788	-929.175	539.69
C	-705.597	-947.075	519.638
C	-679.906	-954.433	503.686
C	-646.203	-952.96	507.675
C	-618.897	-947.09	528.776
C	-594.307	-942.096	546.917
C	-563.409	-936.811	550.308
C	-533.05	-932.097	536.335
C	-507.817	-932.255	516.006
C	-481.811	-938.986	500.599
C	-452.022	-945.681	494.56
C	-420.467	-939.02	496.214
C	-396.306	-915.116	500.151
C	-377.814	-889.342	499.964
C	-349.456	-877.365	492.948
C	-317.878	-885.124	480.803
C	-291.333	-893.123	466.12
C	-265.918	-881.428	450.403
C	-246.362	-854.458	442.936
C	-224.764	-831.542	444.494
C	-194.505	-821.777	445.103
C	-164.242	-820.327	433.89
C	-144.011	-811.664	409.379
C	-136.056	-789.222	385.444
C	-125.956	-761.24	373.595
C	-99.6769	-742.27	369.192
C	-65.2906	-744.31	362.591
C	-37.9653	-754.707	347.446
C	-13.8106	-749.196	328.375
C	7.52704	-722.94	320.403
C	25.5269	-695.362	326.634
C	52.41	-679.889	326.308
C	81.4064	-679.957	306.438
C	97.2365	-684.404	276.198
C	110.077	-672.706	249.659
C	127.003	-644.63	238.707
C	148.755	-618.948	243.721
C	179.447	-608.327	247.297
C	212.504	-615.765	240.003
C	238.328	-629.024	224.038
C	262.926	-630.489	205.05
C	287.16	-615.278	188.923
C	310.219	-595.642	179.361
C	339.779	-588.186	172.879
C	371.423	-598.942	168.837
C	399.066	-613.624	164.701
C	428.884	-614.681	156.597
C	457.669	-601.797	148.876
C	487.23	-592.982	149.289
C	517.438	-603.189	160.021
C	539.357	-626.297	171.403
C	564.862	-643.922	170.958
C	595.667	-645.431	156.129
C	622.491	-636.253	139.268
C	652.6	-633.462	133.532
C	683.693	-641.005	142.327
C	710.4	-652.063	155.872
C	737.678	-663.359	163.564
C	763.854	-679.097	167.41
C	783.539	-700.707	178.964
C	795.752	-718.3	203.768
C	811.009	-723.215	231.63
C	839.622	-723.183	247.302
C	872.485	-731.646	245.509
C	897.674	-751.421	244.629
C	916.658	-769.135	264.875
C	927.9	-767.593	299.196
C	939.834	-756.649	327.338
C	962.498	-762.163	348.774
C	982.801	-789.732	359.375
C	991.072	-819.55	369.782
C	997.184	-835.446	397.643
C	1003.85	-829.219	432.246
C	1014.02	-819.161	460.762
C	1029.98	-822.567	487.26
C	1047.38	-834.42	510.773
C	1061.78	-837.676	537.45
C	1066.53	-825.042	567.815
C	1059.2	-809.084	595.699
C	1050.48	-805.777	625.602
C	1052.08	-815.447	656.656
C	1065.79	-823.347	684.637
C	1080.04	-816.685	712.246
C	1081.22	-797.802	739.463
C	1068.37	-779.654	763.891
C	1054.95	-768.597	789.58
C	1051.89	-761.636	819.77
C	1058.08	-755.874	850.191
C	1060.78	-748.435	879.585
C	1049.35	-736.4	906.757
C	1027.12	-717.765	923.628
C	1009.76	-690.809	930.627
C	1009.69	-658.332	937.529
C	1025.11	-632.134	952.673
C	1037.51	-616.391	978.496
C	1031.03	-602.543	1007.72
C	1007.73	-583.768	1024.97
C	986.469	-558.497	1028.42
C	976.021	-528.789	1031.31
C	969.714	-500.004	1040.58
C	961.737	-475.837	1058.7
C	952.858	-453.223	1077.39
C	946.059	-424.343	1086.38
C	940.117	-392.614	1080.2
C	928.032	-365.83	1067.34
C	906.931	-342.758	1063.49
C	887.365	-320.033	1076.73
C	883.162	-295.121	1098.79
C	891.704	-265.931	1111.45
C	895.625	-233.369	1103.61
C	881.556	-209.741	1079.68
C	854.62	-199.489	1059.85
C	827.297	-184.188	1054.06
C	810.976	-155.328	1060.06
C	812.249	-121.657	1066.46
C	819.934	-90.6071	1059.98
C	821.494	-64.6226	1040.4
C	811.213	-42.7587	1019.15
C	790.201	-21.2507	1007.18
C	764.672	-1.76275	1004.41
C	740.103	15.0861	997.416
C	721.659	29.5685	975.524
C	714.69	45.2888	947.889
C	710.269	71.8202	930.915
C	696.753	100.312	924.963
C	673.115	118.063	913.142
C	653.102	121.873	886.031
C	645.191	126.929	855.254
C	637.148	151.088	834.969
C	623.148	183.054	833.563
C	604.261	206.935	828.529
C	588.775	218.629	800.263
C	586.362	214.999	764.495
C	579.054	214.888	734.82
C	552.722	224.788	716.061
C	519.266	236.011	715.336
C	489.597	243.417	711.854
C	465.886	250.853	691.918
C	453.724	261.12	662.751
C	444.498	276.019	636.901
C	426.41	294.292	619.238
C	398.173	309.256	612.187
C	366.01	314.583	611.165
C	334.922	310.012	605.896
C	309.061	299.637	589.61
C	290.853	291.856	563.988
C	274.397	294.954	537.095
C	251.842	310.195	519.219
C	223.023	327.565	517.503
C	191.422	333.489	523.389
C	160.102	324.961	520.267
C	136.366	310.772	500.669
C	120.559	303.861	472.642
C	100.923	306.187	448.534
C	70.7311	310.091	437.574
C	37.2828	306.774	443.434
C	9.39623	293.759	455.103
C	-15.4033	274.37	456.786
C	-36.7143	254.695	440.26
C	-50.6791	241.73	412.432
C	-66.6633	231.441	388.286
C	-94.5387	217.899	378.976
C	-125.837	206.294	388.828
C	-154.48	198.141	397.892
C	-182.439	186.414	387.827
C	-199.34	169.45	363.184
C	-209.839	144.598	346.044
C	-223.666	114.135	349.01
C	-240.292	89.5187	363.614
C	-261.17	67.4856	367.892
C	-282.382	45.7925	357.213
C	-299.319	22.6413	345.945
C	-312.006	-5.85036	345.166
C	-319.759	-35.8774	346.436
C	-326.693	-63.5214	332.957
C	-335.621	-82.0908	307.087
C	-349.212	-101.642	287.893
C	-363.967	-132.301	290.826
C	-368.683	-160.329	313.122
C	-367.315	-187.871	327.652
C	-366.537	-220.378	320.115
C	-366.337	-245.257	295.707
C	-364.431	-268.204	275.109
C	-359.936	-298.85	268.706
C	-354.295	-330.415	276.792
C	-346.684	-359.032	286.579
C	-332.535	-386.683	287.164
C	-311.061	-408.772	275.957
C	-288.007	-423.323	258.449
C	-267.822	-438.531	240.982
C	-251.851	-461.097	227.278
C	-238.923	-489.25	221.253
C	-223.042	-516.366	224.101
C	-198.896	-535.763	232.146
C	-168.079	-544.701	236.395
C	-137.198	-548.545	226.636
C	-115.627	-554.868	201.365
C	-104.577	-567.706	173.225
C	-88.5013	-587.078	154.902
C	-59.6872	-605.393	154.674
C	-28.4782	-612.61	167.547
C	1.97784	-615.187	172.88
C	31.7229	-619.801	161.173
C	54.7802	-623.961	137.848
C	75.4276	-622.889	114.371
C	99.3447	-616.291	95.9287
C	127.179	-610.608	83.6187
C	157.802	-613.934	76.894
C	187.083	-626.593	74.6109
C	214.83	-638.856	70.3567
C	243.05	-639.4	55.9472
C	263.849	-623.77	33.35
C	277.207	-601.673	13.203
C	296.273	-582.986	-1.79814
C	323.277	-572.573	-14.0845
C	350.059	-570.617	-30.4929
C	370.118	-573.761	-55.0955
C	383.677	-577.604	-83.3008
C	394.546	-573.68	-112.138
C	406.9	-555.362	-135.904
C	420.897	-526.938	-147.326
C	435.653	-499.458	-152.817
C	449.477	-476.212	-167.079
C	456.317	-459.693	-194.372
C	454.827	-451.667	-226.368
C	454.989	-447.4	-257.185
C	465.827	-442.236	-285.9
C	486.387	-431.562	-308.223
C	506.865	-410.595	-322.254
C	517.732	-381.465	-331.882
C	517.287	-353.04	-346.649
C	508.201	-334.825	-373.008
C	493.566	-330.434	-403.207
C	476.935	-325.457	-428.952
C	463.674	-305.998	-449.921
C	463.072	-277.156	-466.357
C	472.977	-254.026	-486.35
C	479.307	-242.793	-515.707
C	470.085	-239.443	-547.387
C	446.746	-234.748	-570.877
C	421.028	-224.075	-586.729
C	400.403	-210.737	-604.981
C	386.245	-201.787	-631.261
C	376.467	-202.203	-661.609
C	364.295	-209.144	-689.554
C	343.434	-214.917	-712.023
C	315.081	-213.884	-727.047
C	285.664	-208.528	-737.049
C	257.209	-209.191	-748.191
C	231.517	-224.829	-759.847
C	212.28	-251.111	-765.651
C	192.198	-274.554	-767.178
C	164.307	-287.671	-772.247
C	134.65	-292.4	-782.62
C	107.417	-302.512	-791.637
C	84.3515	-324.918	-791.193
C	68.1521	-351.612	-781.306
C	52.8545	-375.95	-769.795
C	35.9035	-399.015	-759.322
C	22.1397	-423.737	-747.793
C	16.1013	-451.948	-736.101
C	15.7308	-482.62	-729.678
C	14.2169	-513.509	-728.931
C	8.34058	-542.98	-723.607
C	2.22887	-566.85	-702.465
C	2.74741	-578.444	-670.295
C	9.2321	-587.008	-640.488
C	14.9807	-606.03	-616.815
C	15.005	-634.376	-601.393
C	11.5529	-663.841	-590.847
C	13.6036	-691.893	-578.871
C	29.7077	-716.097	-565.185
C	58.513	-729.378	-553.285
C	88.2801	-733.437	-541.208
C	111.039	-740.98	-521.722
C	120.947	-760.133	-496.738
C	121.32	-787.017	-477.509
C	130.268	-813.319	-464.052
C	156.097	-828.472	-449.968
C	185.683	-826.383	-432.931
C	207.141	-823.517	-410.183
C	223.867	-835.101	-386.127
C	243.801	-857.825	-373.723
C	272.964	-874.174	-377.113
C	305.967	-873.182	-383.668
C	336.318	-865.596	-375.441
C	358.798	-867.657	-350.262
C	374.145	-881.867	-324.802
C	398.523	-896	-311.416
C	432.493	-896.855	-311.685
C	463.142	-885.237	-312.781
C	489.692	-875.599	-298.607
C	511.442	-876.633	-274.167
C	536.739	-884.653	-257.811
C	569.87	-890.96	-263.195
C	597.176	-891.28	-285.032
C	624.474	-890.511	-298.622
C	656.805	-891.444	-289.305
C	679.757	-890.295	-262.285
C	700.679	-881.486	-240.735
C	729.416	-864.331	-238.962
C	755.148	-848.654	-257.787
C	779.481	-839.194	-275.017
C	810.534	-831.926	-275.12
C	839.181	-825.477	-258.559
C	864.263	-814.863	-243.9
C	891.209	-797.463	-246.326
C	913.438	-780.695	-266.189
C	933.59	-768.626	-287.053
C	960.66	-756.428	-295.986
C	989.706	-742.329	-287.635
C	1012.55	-726.465	-270.574
C	1033.82	-707.387	-259.463
C	1058.34	-687.238	-263.769
C	1081.17	-672.46	-283.824
C	1098.75	-660.66	-307.816
C	1114.5	-640.23	-324.799
C	1126.87	-608.886	-325.682
C	1133.28	-578.483	-310.836
C	1140.41	-552.472	-294.912
C	1153.82	-525.343	-288.881
C	1170.15	-498.487	-297.457
C	1182.09	-474.46	-315.763
C	1187.98	-449.955	-334.074
C	1191.46	-421.502	-345.549
C	1196.2	-390.209	-346.367
C	1202.14	-360.076	-337.223
C	1204.69	-331.924	-323.673
C	1197.95	-303.673	-312.064
C	1180.47	-277.01	-307.152
C	1158.95	-253.609	-308.398
C	1140.9	-228.999	-309.752
C	1128.49	-200.983	-306.768
C	1117.15	-173.237	-300.078
C	1097.94	-149.984	-293.488
C	1069.44	-135.48	-289.725
C	1038.98	-127.293	-287.493
C	1010.7	-116.557	-283.737
C	984.461	-101.542	-279.124
C	956.657	-89.2436	-276.826
C	924.996	-88.64	-277.327
C	894.968	-101.948	-275.811
C	870.312	-120.39	-266.119
C	848.337	-134.65	-248.612
C	824.081	-143.175	-231.726
C	794.008	-150.638	-226.47
C	764.195	-160.148	-238.496
C	741.013	-172.422	-257.65
C	717.313	-189.57	-267.206
C	692.369	-209.465	-256.305
C	675.307	-225.026	-230.5
C	661.539	-241.205	-207.846
C	643.646	-265.878	-198.986
C	624.767	-292.707	-208.551
C	605.969	-312.931	-225.959
C	581.94	-327.633	-239.094
C	553.994	-340.322	-244.577
C	529.348	-358.725	-246.392
C	516.468	-388.28	-250.304
C	517.933	-420.806	-258.089
C	517.54	-449.706	-268.781
C	501.421	-474.838	-279.503
C	474.876	-493.437	-284.335
C	450.157	-512.403	-282.009
C	432.815	-537.913	-280.41
C	420.701	-565.211	-291.181
C	411.015	-582.846	-318.604
C	404.447	-588.212	-351.05
C	398.596	-598.489	-379.155
C	390.304	-622.018	-399.037
C	376.167	-647.762	-411.388
C	354.253	-662.835	-428.303
C	332.762	-664.484	-453.016
C	320.889	-666.106	-482.265
C	320.115	-678.539	-512.134
C	326.02	-694.77	-538.949
C	329.079	-701.215	-568.919
C	322.923	-691.464	-600.182
C	308.232	-674.676	-624.686
C	291.08	-664.086	-648.117
C	278.331	-660.721	-676.047
C	275.339	-656.519	-706.96
C	281.601	-643.73	-735.734
C	291.508	-623.192	-758.38
C	299.937	-600.781	-778.082
C	305.564	-580.307	-799.969
C	307.625	-562.324	-824.756
C	304.509	-543.873	-849.237
C	296.418	-520.244	-868.022
C	289.052	-489.735	-875.523
C	291.513	-456.986	-872.188
C	306.427	-428.277	-868.523
C	325.843	-404.084	-876.173
C	339.06	-381.919	-895.244
C	344.103	-357.218	-913.608
C	348.396	-326.085	-918.213
C	355.465	-295.885	-903.875
C	361.412	-272.612	-881.423
C	361.43	-246.874	-864.686
C	355.357	-215.496	-860.999
C	351.275	-184.356	-867.491
C	358.562	-154.094	-869.63
C	375.747	-128.609	-857.076
C	388.565	-109.244	-834.167
C	387.852	-85.098	-813.738
C	380.586	-55.2329	-804.166
C	385.255	-24.8877	-798.712
C	408.517	-2.64718	-788.557
C	434.112	11.2897	-774.805
C	445.273	35.7919	-758.801
C	434.229	65.8216	-743.938
C	417.377	88.2687	-727.673
C	416.961	108.73	-703.675
C	438.205	127.056	-683.132
C	464.462	144.215	-673.231
C	480.689	166.166	-659.48
C	481.385	188.37	-634.924
C	471.84	206.427	-609.331
C	464.603	230.875	-591.758
C	464.789	263.252	-586.647
C	471.782	294.167	-585.272
C	483.92	319.432	-570.529
C	498.629	331.378	-541.979
C	511.675	336.034	-512.987
C	521.32	352.703	-488.977
C	521.118	385.29	-477.363
C	509.731	418.471	-480.702
C	497.699	447.178	-483.182
C	494.708	476.583	-472.781
C	506.667	499.266	-449.578
C	526.859	510.697	-424.954
C	543.941	525.175	-404.126
C	550.01	553.337	-389.353
C	540.511	587.412	-388.07
C	526.39	616.433	-396.495
C	520.903	645.897	-403.151
C	528.831	677.087	-401.487
C	545.199	703.743	-391.698
C	557.934	729.185	-379.772
C	559.073	759.549	-372.143
C	547.876	790.655	-374.747
C	533.86	817.324	-387.135
C	527.039	843.629	-402.155
C	529.9	873.367	-411.68
C	536.744	904.365	-411.587
C	537.022	935.093	-407.472
C	523.759	964.135	-409.574
C	500.186	984.334	-423.205
C	477.768	995.532	-444.621
C	462.568	1007.83	-468.994
C	455.638	1026.38	-493.393
C	454.321	1049.34	-514.824
C	451.437	1073.6	-533.412
C	440.656	1096.06	-551.543
C	421.583	1111.19	-571.834
C	401.068	1115.23	-596.351
C	386.732	1112.8	-624.644
C	377.54	1114.4	-654.042
C	365.034	1124.75	-680.37
C	342.858	1136.29	-699.778
C	313.943	1136.11	-714.218
C	289.642	1120.49	-730.197
C	278.597	1099.37	-753.226
C	278.794	1084.46	-782.541
C	280.624	1076.28	-812.861
C	274.599	1064.96	-840.613
C	257.467	1044.18	-859.272
C	235.469	1019	-863.884
C	215.961	994.589	-865.468
C	200.759	970.262	-876.46
C	191.772	947.681	-896.992
C	187.17	925.289	-918.027
C	184.131	897.652	-931.654
C	184.76	865.737	-934.654
C	191.296	834.717	-931.285
C	200.018	805.293	-928.838
C	202.134	774.781	-929.964
C	190.732	744.944	-933.043
C	170.209	720.161	-935.469
C	153.158	694.802	-935.205
C	150.822	663.312	-929.029
C	167.532	635.562	-915.643
C	189.927	616.523	-900.763
C	204.023	591.736	-890.082
C	203.53	559.048	-886.47
C	195.377	528.707	-881.667
C	196.657	503.633	-862.004
C	213.123	489.252	-835.54
C	233.672	471.911	-819.331
C	241.487	439.37	-816.179
C	227.234	406.987	-816.272
C	208.029	384.532	-801.106
C	205.389	366.961	-772.543
C	223.189	347.568	-750.372
C	247.791	325.217	-743.744
C	269.955	305.211	-736.394
C	280.555	289.574	-709.161
C	269.864	282.107	-675.133
C	252.021	269.64	-650.813
C	242.485	242.547	-635.303
C	247.39	211.07	-625.472
C	260.876	185.626	-611.65
C	274.415	165.234	-592.433
C	283.293	142.68	-573.986
C	286.55	116.454	-558.118
C	286.81	93.8923	-537.192
C	288.392	83.0091	-506.81
C	292.722	78.6136	-475.856
C	296.061	60.1828	-451.135
C	292.145	26.3244	-442.501
C	282.658	-4.86358	-441.523
C	277.363	-28.911	-421.875
C	284.92	-36.6872	-387.349
C	300.351	-40.8837	-359.094
C	311.212	-67.4361	-342.559
C	307.17	-104.807	-347.123
C	299.204	-135.291	-352.133
C	303.08	-163.524	-336.785
C	315.807	-180.921	-310.009
C	318.825	-202.669	-288.89
C	302.996	-231.91	-280.067
C	282.125	-256.671	-277.437
C	274.748	-283.627	-264.044
C	285.802	-307.658	-242.178
C	297.024	-330.678	-224.751
C	290.276	-361.121	-215.78
C	269.113	-388.084	-216.443
C	253.231	-414.316	-216.97
C	253.833	-446.289	-213.501
C	268.093	-475.985	-210.034
C	279.621	-504.445	-209.585
C	277.189	-535.783	-211.585
C	259.022	-563.599	-214.946
C	233.455	-583.609	-219.278
C	208.794	-601.476	-224.859
C	189.932	-624.744	-231.263
C	182.781	-655.447	-237.569
C	189.27	-687.082	-244.613
C	199.054	-714.533	-256.715
C	197.043	-738.557	-277.274
C	176.149	-754.568	-299.47
C	147.816	-763.643	-314.308
C	126.888	-779.851	-329.406
C	123.982	-805.874	-350.41
C	137.448	-829.908	-370.829
C	145.514	-851.715	-390.683
C	133.697	-873.864	-411.457
C	105.004	-885.97	-427.618
C	76.8737	-886.453	-444.397
C	59.8586	-883.386	-471.456
C	57.3057	-884.071	-504.501
C	58.4288	-893.182	-534.87
C	49.6087	-908.085	-560.924
C	31.2424	-920.149	-583.556
C	15.9319	-924.446	-609.937
C	15.1458	-924.248	-642.279
C	24.7108	-925.631	-672.989
C	25.4692	-928.8	-703.223
C	7.45523	-924.365	-730.888
C	-16.4304	-907.117	-748.252
C	-27.9579	-885.763	-768.295
C	-23.4021	-875.715	-800.267
C	-11.7025	-885.82	-832.162
C	-8.63714	-901.179	-860.072
C	-20.6445	-905.117	-889.848
C	-41.6947	-893.146	-914.28
C	-59.2067	-874.245	-933.735
C	-67.9004	-855.47	-956.945
C	-67.7107	-838.544	-983.571
C	-64.9619	-822.474	-1009.78
C	-66.2441	-805.836	-1035.24
C	-69.5047	-789.579	-1060.82
C	-65.6057	-774.482	-1087.27
C	-50.5692	-761	-1111.78
C	-33.8355	-746.245	-1133.17
C	-28.7767	-723.962	-1154.61
C	-39.8107	-697.156	-1171.57
C	-54.342	-672.539	-1185.03
C	-59.0269	-651.095	-1206.77
C	-50.2498	-640.125	-1237.52
C	-34.2061	-639.722	-1266.81
C	-15.8488	-634.42	-1291.21
C	3.75778	-613.532	-1307.07
C	16.9195	-581.76	-1309.72
C	19.8048	-549.59	-1311.1
C	16.3515	-521.477	-1325.98
C	14.4578	-503.625	-1353.99
C	24.0347	-492.157	-1382.69
C	46.6155	-475.967	-1400.19
C	71.0184	-452.328	-1401.04
C	87.2617	-424.882	-1395.77
C	99.829	-396.966	-1398.77
C	115.012	-373.681	-1414.02
C	132.272	-356.904	-1434.7
C	148.433	-337.452	-1451.64
C	160.774	-308.712	-1457.7
C	168.795	-277.492	-1448.54
C	177.633	-251.786	-1430.88
C	191.515	-228.554	-1416.21
C	208.432	-202.475	-1412.85
C	223.689	-175.459	-1421.82
C	239.156	-150.929	-1432.83
C	261.706	-129.258	-1432.56
C	286.829	-115.22	-1414.09
C	302.361	-106.921	-1385.11
C	307.38	-91.5061	-1357.42
C	307.339	-64.9738	-1338.61
C	310.953	-34.5566	-1329.27
C	325.273	-7.65434	-1321.34
C	348.658	10.7756	-1309.09
C	372.525	21.2661	-1290.59
C	389.313	28.526	-1264.57
C	394.114	33.6229	-1232.63
C	387.575	36.134	-1200.65
C	377.546	39.5944	-1171.25
C	372.585	49.5045	-1142.58
C	378.191	65.8019	-1115.8
C	393	80.0023	-1091.43
C	408.382	83.6478	-1064.3
C	412.923	75.7762	-1032.87
C	400.229	64.7166	-1003.45
C	377.471	59.3568	-980.06
C	356.774	57.4276	-957.244
C	345.595	51.085	-929.074
C	347.038	38.6402	-899.039
C	353.983	26.1219	-870.963
C	354.274	18.4576	-841.379
C	340.563	15.8526	-812.35
C	315.256	12.875	-791.33
C	288.315	0.962286	-778.14
C	269.651	-23.5191	-767.376
C	264.206	-53.6852	-755.139
C	263.016	-79.5891	-737.494
C	251.937	-96.801	-713.45
C	228.144	-104.3	-691.671
C	200.114	-113.437	-679.613
C	176.474	-135.203	-676.318
C	160.241	-162.885	-676.688
C	140.804	-185.415	-670.19
C	116.147	-197.227	-652.726
C	95.2824	-206.131	-630.982
C	80.4112	-228.784	-614.976
C	71.9116	-262.281	-616.089
C	62.8419	-290.827	-631.418
C	43.1534	-311.661	-645.029
C	13.3122	-325.864	-645.503
C	-16.9049	-333.173	-633.267
C	-44.8803	-339.676	-621.9
C	-73.2231	-352.718	-623.121
C	-94.7718	-373.973	-636.899
C	-108.518	-399.988	-649.301
C	-126.201	-425.274	-651.219
C	-154.317	-440.461	-648.807
C	-186.744	-441.985	-655.38
C	-213.79	-440.848	-673.047
C	-238.113	-450.325	-689.577
C	-264.646	-468.268	-692.569
C	-293.473	-479.957	-683.399
C	-324.988	-476.975	-677.561
C	-354.703	-465.708	-686.754
C	-378.53	-461.172	-709.243
C	-398.121	-471.415	-733.625
C	-418.384	-490.083	-750.027
C	-445.759	-503.927	-757.302
C	-479	-501.835	-758.091
C	-507.455	-482.483	-757.078
C	-527.332	-456.456	-760.106
C	-545.54	-432.797	-768.777
C	-568.885	-416.158	-780.373
C	-598.331	-409.379	-790.36
C	-629.308	-409.142	-796.625
C	-658.805	-403.872	-802.233
C	-681.986	-382.357	-809.633
C	-688.458	-348.07	-815.146
C	-685.942	-315.253	-815.516
C	-695.216	-286.03	-813.571
C	-721.184	-265.234	-813.173
C	-750.44	-252.08	-816.139
C	-771.298	-229.862	-819.46
C	-775.093	-196.109	-817.326
C	-764.131	-165.008	-807.163
C	-755.099	-138.673	-792.568
C	-755.355	-111.204	-778.686
C	-761.534	-81.6649	-770.922
C	-765.171	-50.736	-770.719
C	-760.823	-19.979	-775.174
C	-749.809	8.83828	-780.372
C	-737.223	36.6459	-783.792
C	-726.667	65.3306	-783.571
C	-718.075	94.2596	-776.632
C	-708.086	119.684	-760.779
C	-692.43	137.995	-739.883
C	-669.016	152.07	-724.039
C	-641.768	169.652	-723.114
C	-622.622	193.739	-737.516
C	-615.903	222.344	-751.974
C	-609.34	253.362	-751.619
C	-591.576	277.141	-735.347
C	-562.464	285.295	-718.802
C	-529.391	288.158	-718.21
C	-501.982	299.429	-734.004
C	-486.258	322.847	-752.079
C	-475.178	353.101	-757.088
C	-460.329	380.391	-745.292
C	-440.225	398.267	-726.719
C	-415.447	413.422	-715.742
C	-388.975	431.473	-720.827
C	-366.769	447.62	-739.896
C	-344.83	458.087	-759.683
C	-315.497	464.574	-768.718
C	-283.668	470.307	-762.243
C	-256.361	481.059	-750.004
C	-231.508	499.827	-747.485
C	-209.542	519.97	-761.809
C	-189.548	531.474	-784.964
C	-163.326	533.092	-802.686
C	-130.284	527.129	-804.403
C	-100.388	518.409	-790.455
C	-74.025	512.326	-774.499
C	-44.2811	510.511	-767.101
C	-12.6627	511.924	-772.578
C	15.922	511.286	-787.034
C	42.0048	502.081	-801.765
C	66.5844	483.056	-808.963
C	89.7557	461.002	-804.309
C	113.07	443.975	-790.465
C	136.872	431.557	-774.748
C	159.347	414.302	-763.41
C	175.121	386.48	-759.847
C	182.507	354.959	-762.894
C	194.17	326.913	-766.625
C	216.212	304.495	-765.707
C	237.564	283.631	-756.242
C	249.495	259.795	-738.691
C	248.01	236.007	-715.767
C	238.544	215.646	-692.694
C	232.263	195.477	-670.629
C	235.491	172.725	-649.869
C	245.403	148.786	-632.319
C	251.52	123.232	-616.682
C	243.937	96.102	-601.982
C	221.788	73.7466	-590.801
C	195.837	57.8407	-581.001
C	175.923	41.0545	-564.832
C	168.098	21.2144	-540.689
C	168.381	1.94642	-515.32
C	160.085	-16.0028	-492.119
C	133.551	-27.5951	-475.281
C	99.8356	-26.8185	-468.082
C	71.4419	-23.3431	-456.181
C	53.4705	-28.7263	-429.423
C	50.6298	-44.6442	-398.86
C	46.8336	-63.4468	-374.191
C	26.2956	-76.6426	-353.677
C	-6.10418	-75.9292	-341.508
C	-36.5735	-67.9059	-333.89
C	-64.1913	-67.9985	-320.981
C	-85.9675	-84.1063	-302.279
C	-96.7672	-109.06	-282.792
C	-104.765	-128.002	-259.43
C	-118.248	-128.757	-229.204
C	-135.682	-108.783	-205.256
C	-156.78	-88.7087	-191.085
C	-184.144	-87.7888	-174.054
C	-203.998	-110.48	-154.19
C	-210.362	-135.539	-133.017
C	-221.052	-145.608	-105.371
C	-243.136	-138.851	-80.5134
C	-270.349	-130.793	-65.1332
C	-294.899	-136.506	-47.019
C	-305.797	-153.345	-20.1609
C	-302.422	-168.004	9.67961
C	-301.104	-176.941	39.1477
C	-311.62	-185.824	66.954
C	-328.573	-195.423	91.3887
C	-339.69	-201.824	119.064
C	-337.669	-202.618	151.202
C	-327.102	-204.804	181.16
C	-319.822	-220.65	207.625
C	-321.921	-249.94	224.765
C	-328.025	-279.748	235.17
C	-327.932	-304.41	253.226
C	-317.551	-319.219	280.654
C	-301.189	-325.385	308.1
C	-283.626	-335.239	331.324
C	-265.755	-355.609	347.578
C	-248.289	-382.347	353.473
C	-229.803	-407.769	353.671
C	-208.088	-429.167	356.746
C	-184.451	-446.816	366.059
C	-161.248	-463.346	377.46
C	-137.809	-482.027	383.462
C	-113.089	-500.999	378.941
C	-87.1752	-513.862	364.863
C	-60.5923	-516.673	346.87
C	-34.6047	-512.736	329.43
C	-9.19015	-510.788	312.606
C	15.576	-517.585	295.475
C	38.0129	-531.576	278.793
C	59.3216	-543.612	260.492
C	80.2411	-544.359	237.043
C	96.0016	-530.68	211.242
C	105.801	-509.762	188.4
C	116.657	-489.413	167.998
C	132.354	-472.495	147.906
C	149.172	-459.537	125.766
C	159.947	-449.277	98.5835
C	160.315	-439.94	68.2053
C	154.416	-427.16	40.1385
C	150.994	-404.951	18.1038
C	153.764	-374.541	6.21848
C	157.284	-343.65	0.466571
C	152.386	-315.885	-11.9365
C	136.395	-297.722	-34.7295
C	117.263	-288.415	-59.1725
C	101.904	-270.254	-78.3156
C	95.3205	-237.326	-83.9244
C	97.3477	-203.994	-75.1926
C	94.9019	-173.989	-69.5645
C	79.8291	-146.626	-78.662
C	57.0334	-130.944	-99.1724
C	34.565	-118.951	-117.427
C	13.3185	-97.109	-124.488
C	-2.54841	-68.6852	-114.509
C	-13.3542	-45.0994	-93.4248
C	-27.4841	-26.6574	-72.7622
C	-47.3235	-7.75925	-58.6918
C	-66.4023	16.317	-52.9098
C	-75.8971	47.0832	-53.436
C	-75.4282	79.0814	-53.8895
C	-76.9972	109.053	-47.2636
C	-91.6137	133.531	-31.9736
C	-117.169	146.141	-13.7727
C	-143.116	152.772	3.37265
C	-163.918	163.696	22.9414
C	-176.299	181.449	45.8732
C	-180.308	204.034	68.0649
C	-180.447	229.926	85.8647
C	-180.696	257.404	99.9599
C	-182.941	282.706	116.785
C	-187.675	299.497	143.219
C	-194.143	302.272	175.74
C	-201.904	299.617	206.305
C	-211.809	307.662	234.249
C	-220.51	331.846	255.121
C	-221.299	362.042	268.252
C	-211.641	386.14	286.464
C	-194.997	394.334	314.837
C	-181.822	387.566	345.274
C	-176.123	384.478	375.567
C	-174.001	397.469	404.738
C	-170.272	421.909	426.35
C	-160.835	443.38	446.457
C	-146.472	452.434	473.231
C	-130.489	448.059	501.574
C	-110.239	441.715	524.717
C	-81.6134	443.896	539.062
C	-51.5763	455.514	544.683
C	-26.5723	470.328	555.171
C	-9.53825	482.312	579.835
C	0.903372	488.57	609.628
C	21.067	494.077	632.112
C	55.5453	500.069	634.448
C	86.9185	502.912	617.889
C	115.997	504.701	608.633
C	146.526	508.015	620.307
C	168.94	512.427	645.269
C	193.306	517.538	662.76
C	226.528	521.984	658.354
C	252.226	522.995	632.474
C	272.031	523.236	607.622
C	300.823	526.569	596.191
C	333.371	532.189	601.021
C	363.51	536.752	606.258
C	392.538	539.218	593.491
C	410.461	540.658	563.739
C	421.97	544.232	534.214
C	444.406	549.181	513.617
C	476.734	548.216	506.159
C	506.783	537.129	502.673
C	529.662	522.04	486.837
C	542.364	514.548	456.552
C	547.295	518.295	423.792
C	554.246	521.866	394.104
C	568	515.411	366.989
C	587.689	501.952	345.753
C	611.92	492.706	328.46
C	636.837	490.564	310.306
C	655.227	483.891	286.613
C	657.554	461.519	260.661
C	645.611	433.128	244.117
C	643.524	408.899	225.933
C	662.997	394.5	201.715
C	690.292	388.165	183.599
C	706.668	366.3	168.357
C	701.894	332.707	157.423
C	689.539	305.449	145.042
C	688.39	284.496	121.521
C	697.225	268.129	95.4428
C	703.608	244.715	76.6901
C	703.566	212.198	71.3592
C	706.576	180.27	77.152
C	722.434	153.034	82.4112
C	745.025	130.703	79.5433
C	758.837	105.025	68.2143
C	753.603	74.69	54.5306
C	737.465	47.4032	45.3202
C	729.004	19.1764	37.6612
C	734.353	-10.7694	28.6195
C	745.758	-39.2268	21.7062
C	752.761	-69.4244	23.3002
C	755.207	-98.5426	37.0864
C	762.796	-122.769	55.9358
C	783.864	-145.004	65.6331
C	810.999	-163.92	55.017
C	828.505	-181.225	31.842
C	836.153	-206.776	14.6431
C	841.079	-239.734	15.2954
C	850.57	-268.022	30.7086
C	870.018	-289.8	43.1973
C	897.151	-307.994	40.2276
C	920.737	-323.37	22.1435
C	934.413	-342.629	0.476944
C	943.973	-368.892	-13.681
C	958.443	-397.008	-16.2748
C	982.653	-418.032	-12.1202
C	1013.84	-427.483	-11.8727
C	1044.48	-428.185	-23.8673
C	1067.49	-426.271	-47.4995
C	1083.97	-427.36	-74.62
C	1102.81	-433.404	-97.9929
C	1128.83	-441.863	-113.251
C	1158.64	-446.951	-121.862
C	1187.1	-444.391	-133.764
C	1208.01	-434.442	-156.252
C	1217.21	-421.996	-185.441
C	1222.38	-409.827	-213.829
C	1233.54	-393.623	-237.427
C	1251.26	-370.411	-251.092
C	1268.59	-343.938	-256.162
C	1282.01	-318.083	-265.372
C	1291.12	-296.72	-286.929
C	1294.98	-282.063	-315.411
C	1294.12	-265.314	-341.409
C	1287.25	-239.081	-358.415
C	1273.89	-208.971	-362.89
C	1257.51	-181.849	-362.797
C	1242.46	-155.897	-368.255
C	1233.21	-129.155	-381.067
C	1230.12	-101.941	-395.859
C	1225.88	-73.5622	-406.311
C	1211.39	-45.5944	-408.728
C	1185.07	-25.7428	-403.007
C	1154.62	-16.1279	-395.684
C	1125.55	-6.22058	-393.854
C	1101.29	13.0109	-398.02
C	1086.03	41.1939	-401.094
C	1076.58	70.9655	-393.889
C	1063.84	93.8458	-375.149
C	1040.91	104.168	-353.75
C	1009.86	102.439	-340.693
C	978.63	97.2452	-335.373
C	949.79	99.2029	-325.702
C	927.811	114.343	-306.771
C	916.21	139.26	-287.831
C	902.724	165.007	-276.621
C	877.098	182.728	-270.462
C	844.959	184.37	-261.397
C	819.158	174.168	-242.426
C	803.613	163.921	-215.56
C	790.734	158.383	-187.839
C	772.338	154.259	-163.834
C	748.225	149.751	-144.911
C	723.483	148.263	-126.866
C	703.739	152.321	-103.376
C	693.317	155.638	-73.6409
C	689.549	146.299	-42.9497
C	683.304	122.742	-20.4721
C	665.604	99.851	-6.11551
C	638.928	92.7676	11.3979
C	619.777	100.864	37.8931
C	617.809	104.185	70.9863
C	624.168	87.7786	100.326
C	622.146	58.3543	117.578
C	606.522	32.1522	129.44
C	588.887	13.6556	147.123
C	584.057	-3.07177	173.649
C	596.151	-20.5048	199.447
C	610.837	-41.3354	218.114
C	611.931	-69.8059	232.254
C	595.884	-99.4749	238.22
C	576.87	-125.416	238.03
C	568.764	-154.617	242.945
C	575.149	-182.627	259.914
C	585.934	-201.454	284.85
C	588.877	-220.289	308.966
C	584.215	-248.69	322.688
C	580.631	-282.367	317.566
C	585.299	-311.042	300.041
C	595.55	-336.612	285.107
C	605.016	-365.448	279.651
C	610.318	-396.187	281.215
C	614.313	-426.337	279.165
C	621.005	-453.561	264.797
C	628.946	-473.906	240.943
C	634.205	-493.015	217.303
C	635.282	-518.364	199.776
C	633.886	-547.535	188.643
C	633.528	-575.025	175.499
C	635.175	-595.548	151.686
C	636.385	-602.343	118.984
C	634.698	-597.098	86.3286
C	631.201	-590.189	56.1515
C	628.935	-589.186	25.764
C	629.109	-594.933	-4.60174
C	628.587	-601.284	-34.4877
C	622.215	-599.754	-64.7296
C	609.078	-587.02	-91.4605
C	594.591	-569.046	-113.252
C	583.598	-553.078	-136.811
C	576.601	-540.705	-164.04
C	568.518	-527.097	-190.047
C	552.351	-506.714	-207.962
C	529.133	-483.327	-212.423
C	506.172	-461.801	-212.291
C	488.485	-438.574	-221.755
C	482.029	-413.761	-241.999
C	483.76	-389.182	-262.218
C	478.11	-361.251	-273.875
C	454.668	-336.259	-272.414
C	422.847	-325.289	-263.512
C	393.065	-316.864	-260.537
C	369.86	-296.443	-267.834
C	361.1	-265.655	-279.105
C	358.2	-234.037	-282.668
C	342.886	-207.246	-273.542
C	313.23	-197.257	-256.568
C	282.12	-200.131	-243.973
C	253.671	-193.924	-234.942
C	233.334	-170.865	-223.486
C	225.296	-140.462	-212.021
C	217.629	-112.512	-201.4
C	199.977	-89.0965	-191.706
C	172.772	-73.9123	-183.613
C	142.377	-68.4663	-174.393
C	114.463	-70.5649	-159.051
C	92.2897	-76.1922	-136.966
C	75.2422	-75.6834	-110.748
C	61.4779	-59.925	-85.8561
C	45.3511	-36.9536	-70.0116
C	23.1292	-19.6029	-57.1945
C	-2.19776	-15.2456	-38.3607
C	-24.0821	-23.6417	-15.2961
C	-44.8206	-35.8366	4.79588
C	-70.5176	-43.2087	19.9643
C	-97.4651	-41.6514	35.3604
C	-116.232	-34.5866	60.047
C	-121.098	-32.7437	92.8441
C	-121.917	-45.113	123.141
C	-135.026	-67.6715	143.529
C	-162.847	-84.3527	153.367
C	-193.538	-85.2476	165.032
C	-213.954	-77.8011	189.848
C	-217.238	-77.7793	223.946
C	-210.784	-94.803	253.328
C	-209.986	-122.642	271.754
C	-221.418	-148.811	286.277
C	-238.06	-166.945	305.691
C	-246.933	-180.55	332.405
C	-240.576	-196.058	360.189
C	-225.213	-214.907	381.558
C	-214.231	-236.175	400.737
C	-213.882	-258.063	422.862
C	-219.674	-280.312	443.908
C	-219.969	-307.988	457.933
C	-207.009	-338.359	461.026
C	-183.587	-361.541	460.6
C	-157.963	-376.876	472.373
C	-139.757	-385.898	498.982
C	-129.59	-395.6	527.479
C	-114.309	-415.214	546.196
C	-89.1235	-439.001	545.319
C	-61.209	-452.99	530.523
C	-32.2446	-460.754	522.033
C	-3.69329	-472.805	529.536
C	16.4079	-491.019	548.797
C	33.2902	-510.278	566.345
C	60.9635	-523.327	573.517
C	95.0805	-521.507	565.134
C	122.459	-512.218	547.625
C	148.551	-513.394	531.252
C	175.634	-528.368	522.178
C	203.669	-542.637	521.843
C	235.895	-538.664	524.906
C	261.867	-515.288	526.369
C	283.097	-492.185	522.101
C	311.544	-483.921	510.191
C	339.713	-494.486	493.238
C	362.301	-509.184	475.92
C	387.622	-513.245	459.2
C	416.345	-502.211	448.103
C	442.382	-481.871	445.907
C	465.472	-460.929	445.174
C	488.392	-443.052	434.98
C	508.191	-432.947	410.764
C	521.914	-433.267	380.48
C	537.542	-436.575	353.913
C	563.316	-432.626	336.071
C	592.941	-416.092	332.24
C	614.713	-391.147	334.885
C	629.76	-364.573	327.234
C	641.191	-345.142	302.849
C	651.453	-339.049	271.538
C	667.559	-336.322	244.953
C	692.182	-325.03	228.177
C	717.302	-303.976	223.211
C	736.766	-279.743	219.122
C	753.166	-259.075	202.52
C	767.841	-250.305	174.131
C	784.971	-252.039	146.829
C	810.885	-250.645	129.087
C	840.023	-235.188	123.741
C	857.864	-205.926	124.16
C	860.91	-173.235	117.16
C	859.461	-146.901	97.914
C	865.679	-129.907	71.0976
C	881.731	-120.771	44.4195
C	899.669	-112.852	20.3916
C	911.694	-96.8024	-2.89821
C	915.354	-68.6335	-19.3382
C	916.751	-35.146	-21.3281
C	926.331	-5.03811	-17.2937
C	946.308	18.7057	-25.0855
C	964.788	31.4787	-51.4151
C	969.121	40.3564	-83.4121
C	961.57	62.3468	-106.788
C	948.679	94.7881	-111.683
C	938.29	125.342	-108.243
C	933.178	154.787	-114.889
C	936.075	181.309	-133.033
C	944.012	203.923	-153.646
C	946.865	226.645	-173.818
C	936.88	247.966	-195.06
C	918.363	266.598	-213.182
C	903.664	292.498	-222.699
C	899.948	325.785	-218.752
C	897.109	355.866	-209.078
C	877.167	380.96	-208.32
C	847.021	394.062	-218.947
C	823.638	410.169	-230.659
C	813.685	441.038	-236.199
C	814.844	474.16	-235.269
C	809.637	504.202	-233.376
C	792.689	530.493	-229.204
C	770.302	550.803	-218.737
C	746.725	565.852	-204.238
C	719.27	577.187	-195.095
C	689.275	587.764	-199.284
C	665.114	604.656	-211.921
C	649.561	632.902	-214.811
C	640.925	661.08	-196.049
C	631.545	677.491	-168.454
C	614.412	689.477	-145.195
C	594.109	703.261	-126.617
C	575.127	717.945	-107.85
C	553.531	729.881	-89.8226
C	524.391	737.676	-80.1647
C	492.69	742.74	-80.3304
C	463.334	749.613	-76.2277
C	440.857	761.436	-55.9059
C	433.061	777.516	-26.6393
C	430.173	797.597	-2.19568
C	416.719	818.59	16.0945
C	388.784	827.69	31.4878
C	359.65	815.964	46.8912
C	341.914	798.653	68.297
C	331.851	799.898	99.7677
C	327.314	827.71	124.166
C	318.358	859.441	132.937
C	294.913	876.118	147.369
C	269.373	871.836	171.158
C	254.025	867.016	198.63
C	242.707	879.263	225.721
C	229.524	897.736	247.446
C	210.855	903.086	271.587
C	195.014	893.347	298.579
C	186.374	888.719	327.874
C	181.036	905.493	356.234
C	175.481	936.46	371.388
C	162.829	963.69	381.437
C	140.89	978.604	399.558
C	118.859	976.024	425.706
C	106.842	965.191	454.67
C	104.181	962.495	486.163
C	105.954	976.992	515.891
C	102.958	1002.15	537.134
C	89.3447	1022.79	556.601
C	70.9031	1028.92	582.395
C	61.3115	1025.4	613.173
C	65.0406	1031.96	644.406
C	72.9059	1057.78	665.772
C	71.1592	1089.19	676.605
C	58.9974	1110.85	696.133
C	49.9173	1114.13	729.188
C	57.2197	1107.19	762.17
C	77.1059	1112.07	788.145
C	95.698	1135.5	804.807
C	103.149	1165.39	816.652
C	104.867	1189.39	836.385
C	108.515	1201.77	865.932
C	117.485	1206.33	896.179
C	132.674	1216.29	921.226
C	153.136	1236.55	936.307
C	175.926	1259.11	941.28
C	200.943	1276.08	947.246
C	226.509	1286.65	961.506
C	249.537	1296.41	979.535
C	272.597	1312.7	991.475
C	296.704	1333.41	992.316
C	322.232	1350.79	989.095
C	351.364	1361.06	990.997
C	382.394	1363.21	995.862
C	413.496	1359.96	994.469
C	442.935	1356.46	984.111
C	471.342	1358.44	972.406
C	500.374	1367.96	966.638
C	528.922	1379.47	964.478
C	558.527	1382.15	956.349
C	583.739	1366.88	939.31
C	596.426	1339.47	922.201
C	608.023	1314.2	908.281
C	629.611	1298.78	891.931
C	656.334	1298.31	872.295
C	679.477	1304.93	851.235
C	699.947	1305.07	828.518
C	718.798	1291.92	806.574
C	732.213	1267.09	789.579
C	736.951	1237.8	776.315
C	733.621	1210.31	760.955
C	726.377	1188.6	739.383
C	721.542	1173.27	712.404
C	723.468	1159.59	684.618
C	732.007	1140.87	661.222
C	742.063	1114.86	646.038
C	746.34	1084.77	637.126
C	741.658	1055.76	626.389
C	726.789	1033.02	608.894
C	705.07	1019.61	588.495
C	682.664	1007.03	571.299
C	665.015	983.458	560.666
C	658.53	950.604	559.397
C	657.586	918.848	562.127
C	645.645	890.687	559.112
C	618.133	873.926	547.879
C	588.282	868.752	534.306
C	564.138	854.625	522.357
C	550.052	825.915	514.746
C	540.429	795.9	511.938
C	517.231	774.953	509.884
C	483.433	769.986	510.249
C	452.88	766.457	516.597
C	431.705	745.048	529.427
C	425.352	713.447	541.338
C	412.78	686.21	547.204
C	380.4	674.233	546.634
C	345.707	683.026	542.627
C	315.32	687.253	545.128
C	288.938	671.015	557.752
C	277.055	641.304	572.63
C	265.708	613.415	580.823
C	240.201	593.902	580.599
C	207.266	588.62	575
C	176.058	586.78	575.355
C	149.668	575.678	590.14
C	135.606	557.42	615.267
C	124.676	540.97	639.483
C	101.566	530.921	657.859
C	69.2871	528.931	665.501
C	38.0388	525.579	667.144
C	11.7849	508.197	670.499
C	-2.294	477.533	674.179
C	-8.77315	446.006	675.214
C	-23.7647	419.553	677.641
C	-50.9889	404.708	689.627
C	-77.3614	405.385	712.277
C	-96.7862	407.581	737.366
C	-119.258	397.719	756.136
C	-146.47	376.915	757.132
C	-170.557	357.427	742.675
C	-194.119	340.669	732.526
C	-217.901	320.422	738.425
C	-233.355	298.068	758.052
C	-243.096	275.299	777.482
C	-259.412	251.356	787.761
C	-285.647	231.606	784.954
C	-313.78	219.442	772.856
C	-338.572	205.069	761.991
C	-358.115	179.948	761.956
C	-367.93	151.064	777.436
C	-374.615	128.161	799.239
C	-390.956	106.664	813.915
C	-415.279	84.0156	810.887
C	-433.204	61.5284	793.238
C	-439.246	33.9171	778.234
C	-437.829	1.14684	777.668
C	-437.814	-29.0563	790.459
C	-447.277	-55.6493	804.387
C	-465.834	-81.1706	808.391
C	-484.088	-106.125	798.292
C	-491.117	-131.965	779.594
C	-483.754	-159.534	763.377
C	-469.331	-188.305	758.428
C	-459.147	-218.079	764.846
C	-458.342	-248.131	774.725
C	-461.815	-278.746	777.65
C	-459.441	-308.757	766.717
C	-444.842	-330.274	744.678
C	-420.582	-342.139	725.162
C	-392.864	-356.056	717.757
C	-369.425	-378.325	724.225
C	-355.357	-405.167	736.256
C	-342.803	-432.994	740.422
C	-324.34	-457.124	729.286
C	-302.619	-469.845	706.707
C	-280.691	-475.981	684.528
C	-256.237	-486.081	669.075
C	-229.235	-501.24	663.033
C	-200.619	-514.101	663.498
C	-169.522	-517.121	662.071
C	-139.81	-509.256	651.917
C	-116.082	-499.094	632.641
C	-94.8664	-495.594	610.069
C	-69.9931	-497.347	592.039
C	-39.5018	-494.988	584.382
C	-9.33748	-482.499	587.207
C	16.1117	-464.097	591.685
C	40.9127	-446.386	587.14
C	63.5706	-432.225	569.008
C	77.0266	-419.375	541.91
C	81.0624	-401.587	515.52
C	83.9462	-376.193	496.981
C	95.5261	-347.389	488.739
C	117.72	-323.428	487.711
C	143.021	-305.224	484.637
C	162.445	-284.835	471.694
C	167.058	-259.445	450.895
C	156.354	-232.585	433.51
C	141.64	-204.776	426.233
C	132.684	-174.736	425.824
C	133.025	-143.525	424.765
C	140.333	-113.732	418.051
C	147.757	-85.6371	407.744
C	147.218	-55.9092	400.034
C	133.035	-26.6281	399.169
C	108.137	-4.88742	402.328
C	81.667	12.0532	401.695
C	60.1223	32.9486	394.967
C	47.1506	60.7943	388.274
C	40.2918	91.7554	390.128
C	31.3923	119.684	402.226
C	12.9667	140.437	418.026
C	-15.9024	151.81	428.8
C	-48.4974	154.957	431.176
C	-79.5532	157.02	430.485
C	-108.715	165.878	433.001
C	-133.598	184.339	439.158
C	-153.863	207.672	444.694
C	-176.542	227.856	447.551
C	-206.616	236.706	451.776
C	-237.313	229.272	463.897
C	-258.379	214.081	485.461
C	-274.059	206.697	511.996
C	-294.846	214.491	535.169
C	-322.675	231.599	543.836
C	-354.061	241.122	539.904
C	-385.807	231.699	538.629
C	-408.241	207.577	550.405
C	-422.094	186.825	572.053
C	-443.063	178.313	593.704
C	-472.749	178.671	606.737
C	-502.119	174.04	614.991
C	-523.382	154.891	629.605
C	-532.211	128.976	648.503
C	-543.632	105.114	663.826
C	-566.811	83.7536	668.811
C	-590.934	63.2263	662.935
C	-604.609	35.4785	657.54
C	-606.065	2.97943	661.604
C	-606.698	-25.8712	675.07
C	-618.849	-49.2161	692.826
C	-640.132	-65.9463	710.211
C	-659.584	-82.7883	726.792
C	-669.965	-108.125	741.714
C	-670.454	-140.513	747.469
C	-669.009	-172.535	740.2
C	-673.144	-200.952	726.701
C	-680.606	-228.982	716.951
C	-682.473	-259.798	715.195
C	-673.379	-290.24	717.823
C	-659.345	-318.088	718.402
C	-650.626	-347.224	717.005
C	-650.24	-378.194	719.104
C	-650.66	-408.342	725.132
C	-642.021	-437.955	725.6
C	-624.998	-462.055	709.475
C	-611.722	-474.855	680.424
C	-606.78	-488.41	652.54
C	-602.898	-514.891	635.454
C	-593.202	-547.593	635.766
C	-574.743	-573.759	642.979
C	-548.71	-592.056	639.048
C	-523.712	-601.558	618.159
C	-507.789	-606.774	589.677
C	-496.254	-618.99	563.606
C	-484.819	-641.77	544.763
C	-472.686	-667.924	532.205
C	-456.931	-688.373	515.853
C	-436.658	-693.957	490.57
C	-417.838	-681.364	464.392
C	-402.187	-664.49	442.176
C	-384.229	-657.698	418.395
C	-363.737	-667.15	394.757
C	-343.784	-685.944	377.088
C	-322.435	-700.319	360.536
C	-301.303	-701.971	337.134
C	-291.028	-689.835	307.078
C	-295.754	-673.089	277.849
C	-302.017	-659.073	250.77
C	-293.557	-645.968	223.749
C	-266.81	-634.837	205.297
C	-236.575	-627.226	195.427
C	-214.427	-618.28	176.375
C	-208.405	-605.473	145.877
C	-214.759	-587.628	118.476
C	-215.569	-562.388	99.5946
C	-204.381	-535.895	85.8126
C	-189.715	-515.431	67.8233
C	-183.572	-498.531	42.3611
C	-188.097	-477.406	19.3687
C	-192.956	-447.887	7.88822
C	-188.173	-416.505	3.8756
C	-175.544	-389.908	-6.6841
C	-166.487	-369.935	-30.0625
C	-171.888	-354.601	-58.7457
C	-191.721	-338.775	-80.3002
C	-215.032	-317.641	-89.433
C	-229.253	-288.345	-90.116
C	-226.935	-254.886	-88.3386
C	-213.463	-224.988	-90.0283
C	-204.172	-197.083	-99.9697
C	-210.497	-171.215	-119.356
C	-230.796	-154.803	-141.519
C	-251.503	-141.266	-160.765
C	-265.149	-117.828	-175.707
C	-270.186	-85.2566	-179.555
C	-273.643	-53.6833	-171.053
C	-286.597	-27.022	-160.537
C	-310.648	-5.47096	-159.909
C	-335.213	11.6661	-173.739
C	-350.151	31.2474	-194.28
C	-355.078	58.9599	-209.52
C	-355.993	91.5189	-211.577
C	-361.413	122.117	-203.281
C	-376.365	148.681	-195.607
C	-399.741	170.638	-198.722
C	-424.756	185.689	-214.171
C	-447.37	198.509	-231.384
C	-469.083	220.165	-236.795
C	-480.781	250.349	-222.931
C	-477.378	279.068	-204.611
C	-476.109	310.58	-203.402
C	-489.798	337.552	-221.146
C	-515.802	353.758	-234.962
C	-542.068	372.534	-227.045
C	-558.394	393.697	-206.917
C	-576.074	416.359	-197
C	-600.884	436.587	-203.506
C	-623.374	455.718	-213.594
C	-637.668	483.858	-212.088
C	-642.259	513.867	-198.475
C	-648.989	539.827	-183.015
C	-662.031	565.338	-172.269
C	-670.447	594.654	-167.776
C	-665.683	626.67	-169.146
C	-657.74	656.531	-174.692
C	-665.175	686.454	-180.472
C	-689.357	710.184	-180.564
C	-711.445	731.038	-171.057
C	-714.053	759.763	-154.295
C	-692.257	786.681	-142.283
C	-666.133	808.119	-143.626
C	-652.217	835.182	-153.835
C	-656.084	866.829	-164.418
C	-669.784	896.88	-165.085
C	-678.788	925.187	-152.129
C	-674.499	949.961	-130.442
C	-658.038	970.884	-111.301
C	-637.063	993.575	-103.042
C	-619.603	1020.61	-107.995
C	-609.607	1048.56	-120.93
C	-600.846	1075.85	-131.935
C	-584.014	1101.88	-134.081
C	-559.017	1121.33	-125.324
C	-534.301	1135.56	-111.044
C	-514.779	1155.29	-98.118
C	-501.057	1182.87	-91.5499
C	-486.615	1210.59	-93.187
C	-462.095	1229.82	-100.235
C	-430.19	1235.56	-107.251
C	-398.954	1237.6	-109.367
C	-370.813	1250.21	-106.877
C	-349.452	1274.1	-104.301
C	-330.131	1298.11	-107.941
C	-302.645	1309.53	-119.84
C	-271.598	1299.5	-132.806
C	-244.594	1280.72	-137.443
C	-214.114	1274.8	-136.239
C	-183.699	1289.91	-135.475
C	-159.787	1311.7	-138.686
C	-130.776	1320.84	-142.653
C	-98.5984	1312.26	-143.302
C	-70.1348	1298.32	-145.367
C	-43.0912	1291.39	-160.088
C	-24.2969	1291.08	-187.914
C	-10.6789	1288.52	-216.115
C	13.49	1279.48	-233.849
C	47.473	1270.8	-230.378
C	77.3351	1268.86	-213.762
C	106.949	1266.96	-206.965
C	136.091	1258.14	-220.968
C	152.659	1243.04	-247.909
C	164.298	1223.32	-269.872
C	181.229	1199.51	-281.257
C	202.826	1177.91	-287.424
C	226.601	1163.88	-301.509
C	247.726	1158.03	-324.962
C	266.681	1148.63	-346.931
C	286.887	1124.95	-356.289
C	304.649	1096.9	-351.072
C	325.233	1074.45	-351.11
C	346.651	1058.97	-371.069
C	353.172	1048.45	-403.685
C	344.61	1030.62	-430.722
C	337.052	1002.27	-445.14
C	345.126	971.668	-453.162
C	366.793	948.065	-461.244
C	387.242	926.752	-470.081
C	396.685	898.222	-478.053
C	395.421	867.893	-487.923
C	394.419	843.885	-508.467
C	399.369	830.585	-538.084
C	404.637	817.851	-565.562
C	400.448	791.47	-583.459
C	384.88	760.385	-585.657
C	368.442	733.829	-587.182
C	361.121	707.542	-602.672
C	367.419	684.601	-625.883
C	376.4	660.98	-643.891
C	373.072	630.736	-652.84
C	352.412	603.431	-653.524
C	324.364	586.222	-655.65
C	300.126	571.889	-670.076
C	288.732	556.468	-697.407
C	291.285	540.211	-726.415
C	293.539	519.191	-749.137
C	281.51	491.964	-762.157
C	254.284	469.684	-761.289
C	224.023	457.502	-756.993
C	197.537	443.637	-764.495
C	181.792	423.074	-785.072
C	174.928	399.778	-806.129
C	159.067	377.144	-819.388
C	127.611	365.829	-824.26
C	93.837	373.451	-827.736
C	67.2329	385.348	-841.586
C	46.2141	384.849	-866.23
C	30.2469	366.518	-889.744
C	15.2432	340.184	-902.642
C	-6.41898	318.143	-908.494
C	-37.0313	308.052	-911.837
C	-70.0203	312.158	-913.398
C	-100.173	322.02	-914.743
C	-129.77	328.041	-919.001
C	-159.42	328.76	-927.127
C	-188.467	330.795	-936.222
C	-216.928	340.08	-943.371
C	-244.214	352.391	-950.179
C	-272.246	358.081	-961.173
C	-300.071	355.256	-975.247
C	-328.406	356.062	-986.317
C	-355.682	374.435	-988.545
C	-369.926	405.994	-980.184
C	-377.917	435.242	-969.553
C	-397.462	457.985	-962.394
C	-429.068	468.722	-961.267
C	-461.168	471.326	-965.204
C	-489.482	481.57	-970.848
C	-509.332	506.988	-976.312
C	-515.467	540.176	-979.17
C	-517.406	571.755	-977.341
C	-527.749	599.697	-968.107
C	-547.678	619.132	-950.671
C	-567.67	632.82	-930.306
C	-579.417	655.69	-913.271
C	-577.832	689.207	-907.668
C	-569.769	720.879	-910.165
C	-568.407	750.297	-901.988
C	-574.124	772.655	-877.941
C	-576.326	789.921	-851.686
C	-567.468	815.971	-835.965
C	-552.032	845.545	-834.432
C	-537.988	872.492	-830.605
C	-526.21	895.385	-812.284
C	-515.454	911.098	-786.435
C	-501.875	925.609	-763.044
C	-485.085	940.907	-742.55
C	-467.543	950.842	-719.342
C	-450.798	949.388	-692.247
C	-432.506	940.487	-667.988
C	-406.467	936.261	-651.09
C	-375.226	943.757	-643.838
C	-346.855	958.143	-640.545
C	-320.816	970.117	-629.796
C	-297.703	973.958	-608.033
C	-280.174	968.15	-581.135
C	-265.035	954.334	-556.698
C	-247.147	934.083	-539.995
C	-224.459	912.298	-533.595
C	-197.771	895.734	-531.875
C	-170.26	884.48	-523.699
C	-149.522	871.153	-503.725
C	-142.968	849.421	-479.382
C	-144.348	821.899	-462.082
C	-136.447	794.254	-450.661
C	-112.953	773.243	-441.862
C	-84.6568	758.637	-437.31
C	-64.0273	735.581	-437.074
C	-60.6042	701.974	-438.406
C	-69.8509	670.24	-433.895
C	-72.5138	642.227	-420.308
C	-59.7688	616.359	-406.233
C	-39.5056	591.353	-403.621
C	-27.2351	562.961	-410.931
C	-30.7043	530.883	-414.425
C	-43.7149	501.798	-405.034
C	-51.4881	475.608	-389.685
C	-46.1591	445.565	-381.7
C	-32.4907	415.934	-387.044
C	-25.2056	387.217	-396.744
C	-35.8369	356.453	-399.702
C	-62.4777	334.364	-393.859
C	-89.0871	318.379	-386.363
C	-105.417	293.045	-379.518
C	-103.091	260.428	-369.906
C	-87.915	233.43	-356.405
C	-78.0036	208.186	-342.149
C	-82.8509	177.17	-335.68
C	-101.246	148.819	-344.58
C	-122.562	128.749	-359.964
C	-142.951	107.293	-367.721
C	-159.798	80.6969	-361.369
C	-166.769	53.0787	-344.275
C	-164.071	26.5581	-326.071
C	-160.133	0.206923	-310.586
C	-166.858	-26.2925	-296.263
C	-191.061	-47.3323	-286.232
C	-223.078	-58.9896	-286.295
C	-249.613	-74.4596	-291.221
C	-263.778	-103.714	-288.929
C	-261.48	-134.33	-271.129
C	-258.115	-153.274	-243.813
C	-270.734	-168.898	-219.18
C	-295.963	-188.295	-208.77
C	-316.657	-212.886	-207.973
C	-325.011	-241.501	-197.59
C	-324.112	-265.332	-174.72
C	-322.018	-286.451	-152.068
C	-321.758	-315.321	-140.39
C	-330.038	-347.379	-143.08
C	-346.526	-374.279	-143.667
C	-363.073	-395.604	-125.154
C	-367.886	-409.441	-94.2127
C	-361.658	-428.206	-69.0561
C	-352.045	-459.24	-60.3172
C	-345.733	-491.813	-66.252
C	-339.674	-521.636	-66.0524
C	-326.283	-545.315	-47.3448
C	-310.074	-556.535	-19.7994
C	-293.614	-570.383	1.88901
C	-278.708	-598.01	10.39
C	-270.116	-630.29	4.71732
C	-261.243	-659.424	-0.179618
C	-242.481	-683.807	7.35004
C	-216.069	-695.137	25.9177
C	-189.254	-697.521	43.9456
C	-161.117	-704.647	54.0601
C	-132.471	-718.733	53.2254
C	-104.673	-731.344	45.397
C	-74.5916	-735.989	40.238
C	-43.5448	-736.112	43.685
C	-14.3073	-741.293	52.3154
C	13.9534	-752.881	56.181
C	43.7729	-759.15	48.4311
C	71.6299	-749.099	32.723
C	94.7659	-730.075	20.3274
C	122.714	-718.158	15.5647
C	154.837	-718.302	16.6693
C	185.506	-718.588	17.3973
C	213.094	-704.366	10.8641
C	229.028	-678.164	-4.45221
C	236.382	-653.232	-24.0225
C	247.659	-631.868	-42.6852
C	266.592	-609.737	-53.5206
C	288.03	-585.623	-51.4767
C	306.69	-561.611	-42.6547
C	325.454	-537.777	-40.1399
C	344.024	-515.385	-54.3793
C	353.019	-498.168	-82.5242
C	353.617	-478.671	-107.536
C	350.377	-448.669	-119.56
C	345.219	-415.687	-116.818
C	340.804	-385.197	-112.24
C	339.533	-354.83	-115.908
C	342.316	-325.598	-126.317
C	345.01	-296.999	-136.839
C	339.372	-267.797	-145.031
C	319.59	-242.946	-152.333
C	290.487	-228.207	-158.705
C	261.585	-216.664	-162.096
C	237.178	-197.885	-160.987
C	219.142	-172.34	-157.832
C	202.059	-146.889	-159.116
C	179.479	-127.227	-167.79
C	152.374	-115.176	-178.531
C	123.121	-105.736	-182.772
C	93.6326	-96.3187	-176.721
C	65.4791	-90.1392	-163.892
C	35.7323	-94.8707	-154.616
C	8.03357	-114.55	-159.17
C	-13.9851	-135.004	-171.522
C	-41.164	-146.882	-179.178
C	-73.5295	-148.236	-174.816
C	-102.68	-144.878	-160.616
C	-129.522	-146.841	-145.521
C	-156.992	-158.491	-136.237
C	-182.135	-178.753	-135.51
C	-200.825	-204.677	-139.746
C	-211.794	-234.403	-142.059
C	-217.843	-264.962	-137.961
C	-227.375	-292.672	-128.074
C	-248.329	-314.071	-117.584
C	-277.668	-327.441	-113.204
C	-305.005	-342.163	-116.525
C	-320.821	-369.425	-124.096
C	-317.651	-403.485	-130.752
C	-306.91	-434.062	-133.537
C	-307.09	-464.641	-134.428
C	-325.571	-492.188	-133.94
C	-353.453	-510.304	-131.119
C	-376.69	-529.675	-126.339
C	-384.983	-560.911	-123.781
C	-374.787	-593.8	-130.658
C	-365.098	-619.566	-148.255
C	-370.519	-642.177	-170.589
C	-389.002	-663.419	-187.121
C	-407.243	-687.877	-194.672
C	-414.922	-717.709	-200.349
C	-410.53	-747.299	-212.137
C	-401.672	-770.808	-232.067
C	-397.663	-790.408	-255.945
C	-402.342	-810.895	-278.815
C	-413.931	-831.473	-299.296
C	-427.596	-846.835	-322.471
C	-438.082	-850.223	-352.755
C	-438.969	-844.214	-385.046
C	-429.456	-845.767	-415.434
C	-418.296	-861.752	-441.401
C	-415.06	-884.667	-463.499
C	-422.243	-899.687	-490.302
C	-434.018	-894.483	-522.016
C	-438.919	-872.389	-548.547
C	-432.933	-851.681	-572.377
C	-422.498	-843.287	-601.017
C	-418.539	-848.425	-632.973
C	-427.33	-858.361	-662.857
C	-442.871	-862.602	-690.028
C	-453.458	-856.459	-718.78
C	-451.275	-839.89	-747.261
C	-439.958	-817.299	-768.784
C	-430.396	-792.876	-785.847
C	-425.783	-769.514	-805.002
C	-420.699	-751.139	-829.112
C	-410.789	-739.464	-856.374
C	-401.309	-730.799	-884.395
C	-402.826	-719.163	-913.315
C	-418.549	-703.689	-937.786
C	-436.417	-684.101	-955.392
C	-441.413	-657.072	-971.375
C	-426.792	-628.915	-984.527
C	-402.631	-608.807	-995.512
C	-382.364	-591.895	-1011.52
C	-371.988	-571.698	-1033.01
C	-372.596	-545.988	-1052.27
C	-379.667	-516.626	-1063.44
C	-387.075	-487.344	-1070.76
C	-390.824	-460.118	-1084.11
C	-388.175	-438.416	-1107.35
C	-377.885	-423.984	-1134.45
C	-360.563	-411.088	-1157.52
C	-337.845	-393.401	-1171.16
C	-315.171	-369.619	-1171.86
C	-300.074	-341.748	-1163.25
C	-295.594	-310.772	-1156.31
C	-299.278	-278.962	-1162.03
C	-303.351	-253.083	-1182.61
C	-297.371	-233.433	-1207.58
C	-276.594	-213.401	-1223.13
C	-248.227	-193.877	-1220.68
C	-223.355	-176.143	-1209.67
C	-201.478	-155.237	-1205.89
C	-182.792	-130.88	-1213.15
C	-168.044	-105.242	-1222.64
C	-153.002	-78.4416	-1223.41
C	-133.416	-55.3824	-1213.99
C	-106.035	-42.3886	-1203.13
C	-73.1706	-41.2725	-1200.02
C	-41.6195	-45.4831	-1203.22
C	-11.2512	-43.8583	-1201.92
C	15.9436	-31.8035	-1189.66
C	36.4763	-14.2638	-1172
C	58.4748	1.92403	-1158.37
C	86.9882	12.7351	-1151.96
C	118.055	15.482	-1147.68
C	146.769	9.78434	-1135.34
C	166.462	-3.78527	-1112.11
C	176.287	-20.8863	-1085.96
C	188.173	-37.1994	-1062.96
C	210.818	-49.6571	-1045.34
C	240.48	-56.643	-1035.01
C	269.047	-64.6456	-1026.71
C	290.788	-82.6693	-1013.23
C	297.651	-109.806	-994.295
C	291.293	-135.597	-973.96
C	285.858	-156.738	-951.96
C	291.341	-176.395	-928.653
C	308.063	-196.775	-910.503
C	326.575	-221.027	-901.587
C	335.439	-251.483	-898.483
C	328.385	-283.629	-895.402
C	310.416	-310.178	-887.849
C	293.77	-332.827	-874.036
C	287.17	-356.816	-855.043
C	291.956	-382.135	-836.121
C	299.047	-409.492	-823.115
C	296.59	-440.996	-819.801
C	280.828	-469.85	-827.202
C	259.973	-492.643	-835.604
C	242.413	-517.886	-832.636
C	232.737	-544.593	-816.546
C	225.519	-569.908	-800.218
C	209.36	-596.732	-797.378
C	185.418	-617.277	-810.047
C	159.88	-631.751	-821.471
C	134.852	-650.498	-816.221
C	120.207	-673.192	-795.261
C	116.456	-699.084	-776.046
C	112.252	-730.426	-771.421
C	99.8382	-759.472	-782.832
C	76.9735	-777.787	-799.133
C	46.9977	-786.951	-808.654
C	15.9024	-793.672	-809.168
C	-12.5576	-805.251	-804.358
C	-35.6675	-825.123	-795.993
C	-50.5038	-850.564	-782.93
C	-58.6879	-876.2	-766.098
C	-67.5414	-901.732	-751.801
C	-84.1715	-928.769	-750.246
C	-106.122	-950.123	-765.365
C	-127.919	-966.408	-781.232
C	-153.043	-985.826	-778.958
C	-175.008	-1001.05	-756.372
C	-194.494	-1013.3	-735.293
C	-217.878	-1035.06	-732.138
C	-233.241	-1063.03	-745.326
C	-239.613	-1093.65	-750.002
C	-244.699	-1121.64	-731.005
C	-254.205	-1135.2	-700.425
C	-276.375	-1144.99	-679.132
C	-307.409	-1157.77	-675.054
C	-334.641	-1173.85	-676.79
C	-353.657	-1196.19	-665.218
C	-359.791	-1220.23	-642.475
C	-363.799	-1242.86	-621.581
C	-378.363	-1262.89	-603.318
C	-400.313	-1271.38	-581.313
C	-416.163	-1269.29	-553.029
C	-418.573	-1277.03	-522.032
C	-413.114	-1302.59	-499.77
C	-410.645	-1332.75	-487.515
C	-416.227	-1357.02	-469.469
C	-429.379	-1370.26	-442.737
C	-448.18	-1373.13	-416.055
C	-470.297	-1372.75	-393.607
C	-490.565	-1373.15	-370.77
C	-499.85	-1374.95	-340.72
C	-490.227	-1377.7	-308.034
C	-471.439	-1381.35	-281.248
C	-463.506	-1387.08	-252.363
C	-477.657	-1393.53	-222.117
C	-503.028	-1395.71	-199.923
C	-516.618	-1392.01	-172.522
C	-505.729	-1383.64	-140.057
C	-483.57	-1375.99	-115.619
C	-477.667	-1369.33	-86.243
C	-495.707	-1362.35	-56.973
C	-517.254	-1353.42	-34.7862
C	-519.874	-1341.34	-5.64555
C	-500.189	-1334.28	22.9527
C	-479.078	-1331.97	46.7995
C	-472.332	-1320.85	75.1806
C	-483.149	-1297.44	98.6765
C	-497.491	-1272.34	113.652
C	-500.587	-1252.77	137.195
C	-488.909	-1245.62	168.48
C	-472.298	-1242.35	195.654
C	-462.53	-1222.88	218.434
C	-466.15	-1190.51	230.73
C	-474.995	-1161.82	240.935
C	-475.549	-1141.24	264.801
C	-463.568	-1132.4	295.293
C	-446.816	-1123.3	320.276
C	-435.747	-1099.42	338.17
C	-439.732	-1066.11	346.253
C	-456.532	-1037.8	351.716
C	-474.524	-1016.98	367.439
C	-481.332	-1001.74	395.783
C	-469.471	-989.184	425.282
C	-447.085	-972.682	443.805
C	-430.537	-946.885	453.452
C	-431.435	-915.307	463.2
C	-447.787	-889.52	477.724
C	-462.961	-869.351	496.31
C	-464.085	-843.883	514.386
C	-449.581	-815.316	524.467
C	-431.731	-790.197	531.629
C	-422.073	-768.331	551.892
C	-426.59	-757.591	584.846
C	-439.165	-754.329	615.293
C	-449.631	-737.754	639.4
C	-453.01	-703.833	648.284
C	-449.884	-669.872	642.111
C	-446.66	-639.579	643.818
C	-443.299	-613.71	663.298
C	-436.985	-596.043	689.951
C	-427.5	-574.837	709.787
C	-421.603	-545.242	719.336
C	-427.488	-514.653	726.34
C	-443.437	-490.369	740.29
C	-457.831	-469.678	758.341
C	-460.012	-440.757	770.388
C	-446.964	-408.676	768.258
C	-430.134	-381.907	762.499
C	-421.233	-353.345	771.116
C	-426.067	-328.452	794.164
C	-438.209	-307.131	814.775
C	-446.281	-276.991	820.723
C	-442.599	-244.501	807.947
C	-428.882	-219.42	790.485
C	-412.561	-193.367	785.15
C	-400.837	-164.787	796.809
C	-398.451	-137.517	814.097
C	-400.741	-106.695	819.106
C	-401.935	-76.8727	801.596
C	-398.118	-59.5779	771.328
C	-388.811	-43.1059	746.585
C	-376.254	-15.2151	736.232
C	-366.506	16.7523	742.309
C	-360.318	46.636	748.069
C	-351.983	75.3694	738.873
C	-337.896	95.5667	716.334
C	-317.354	106.366	693.504
C	-293.54	116.48	676.297
C	-273.695	133.31	660.224
C	-264.773	157.964	641.988
C	-263.189	184.597	624.915
C	-252.502	208.469	609.172
C	-225.354	220.14	593.23
C	-195.967	213.699	576.156
C	-176.945	205.609	551.802
C	-166.716	211.845	521.645
C	-157.529	231.386	497.093
C	-139.207	249.423	479.195
C	-111.284	252.192	462.461
C	-84.9092	237.229	446.828
C	-65.4076	218.736	429.763
C	-46.9389	203.75	410.548
C	-27.0544	189.021	392.83
C	-8.27592	169.793	378.098
C	6.43799	148.396	361.777
C	18.5263	132.952	337.648
C	32.5488	125.784	310.508
C	53.6141	114.708	290.825
C	76.4244	89.0384	288.835
C	86.8216	57.6632	301.559
C	92.5123	27.4818	306.167
C	106.838	1.02311	294.754
C	129.428	-16.7113	279.663
C	152.42	-36.904	275.661
C	165.758	-65.7714	281.368
C	167.632	-97.6673	285.913
C	168.329	-128.403	287.784
C	174.282	-156.867	298.17
